192
Lattice="12.429 0.0 0.0 0.0 12.429 0.0 0.0 0.0 12.429" Properties=species:S:1:pos:R:3:forces:R:3 energy=-939.4722189747308 pbc="T T T"
H        5.14707034       9.94376480      10.78262789       0.46755819      -0.04372806       0.37932547
H        3.53913310       2.98329556      11.14595941      -0.63229039      -0.48210220       1.15473740
H        0.57545627       1.03590127       4.00503071       0.39997987      -0.40015197      -0.21670200
H       10.10040676       7.98376998      12.34305063      -0.80714435       0.60487062       0.62325042
H       12.09760280      10.64370212       7.54653165      -0.84831312      -0.41882732      -1.08452699
H        7.89808615       5.36774812       5.77881506      -0.85344806      -0.34567963       1.01268122
H        0.52350617      11.31349789      10.27758844       0.10687064       0.83764352       1.25721190
H        8.89737787       2.86964018       3.34152129       0.29611774      -0.26129285      -0.14639219
H        2.34914762       5.53376101       4.38377780       0.26113860       0.39780724      -0.13557083
H        0.89990741      10.75179640       1.87634714      -0.47028742       0.44134603       0.97024579
H        0.33799302       9.19096949       9.32030527       0.90892779       0.35389143      -0.60355389
H        8.65159366       9.40977059       1.70683308       0.29486551       0.54512022       0.66138437
H        7.69767740       4.47682677      12.34350450      -0.79965486      -0.57743517       0.25694255
H        5.17755929       4.84031142       1.46499769      -0.04049913      -0.11945008      -0.08806038
H        1.60501710       5.41424474      12.30368262       0.64353388       0.34457966      -0.26754413
H        2.43560419      10.83351542       5.83285679       0.22518496      -0.23699740      -0.48181770
H        8.28541896       2.09557673       9.90171591       0.82488258       0.51066534      -0.41243826
H        7.89306801       3.86867109       8.03633503      -0.27282016       0.62318304      -0.20958638
H        3.09430202       0.72580931      12.34452724      -0.06261554      -0.36047482      -0.13406168
H        8.68925907       2.02718154       7.61489975       0.27658789       0.36838911       0.18248098
H        0.70991346       7.66054676       3.94041641       0.11007600       0.28601349      -0.27030116
H        7.04529574       0.18020482      12.27287559       0.20570492      -0.32270190      -1.85692770
H        4.07358603       6.84839464       2.01139865      -0.06670935       0.81421004       0.16222000
H        0.77618588       1.38297014       6.16018327       0.18961343       0.52945147       0.39302609
H        9.69074555       7.96629397       7.26861771       0.21155813       0.15568577      -2.48301605
H        2.55501296      12.33512002       2.61832501      -1.39880291      -0.11023669       0.58314405
H        0.68793685       3.99822907      10.70644368      -0.02682035       0.06255441      -0.48742130
H        9.54580157      11.49764717      10.72813667       0.36902280       1.16155012       0.57718546
H        2.21677834       8.04670137      11.99349155      -0.27584229       0.37753135      -0.14316698
H        0.31146308       1.47061964       8.56078330      -0.46907833       0.25686351      -0.07405221
H        5.72134637       1.59476823       5.42715304      -0.24461519      -0.38398498      -0.64240463
H        8.39670068      10.62373110       8.66061697      -0.12012263       0.44038921       0.12113446
H        4.02270649      11.02187153      11.06137642       0.22791582      -0.19864677      -0.29483155
H        4.25078128       2.74367210       9.74399640       0.31265428      -0.05878286      -0.00097753
H       11.62018283       1.06724311       4.63116842      -0.30179426      -0.56642591      -0.10934210
H       11.10469733       6.84468840       0.07578483      -0.12706869      -0.05728946      -0.07724478
H        0.10639946       9.72690274       6.44599018      -0.75801511       0.24520139      -0.10630913
H        9.11774809       4.90830772       5.05081686       0.70987107      -0.78699156      -0.07063255
H       12.09820666      11.96768554      11.45715696       0.33373481       0.19224209      -0.25814788
H        9.22941299       2.02761405       4.57246873      -0.04782901       0.08205288       0.69531922
H        1.07939934       5.12322568       5.05424389      -0.40530207       0.04417866       0.11506546
H        1.25382401       9.65947309       1.02509849      -0.14072997      -1.05255850      -0.37121002
H        1.64582325       9.28093087      10.06603091      -0.11165461       0.40959616      -1.11465953
H        8.18000274       7.89498998       1.51149734       0.62423470       1.84598809      -0.59433112
H        6.23748898       4.04349570      12.04849134       0.53836112       0.02758426       0.69348645
H        5.84138649       5.81460208       2.43244675      -1.24741262      -0.52742500      -0.20214985
H        2.25312629       6.30723875       0.90572663       0.09598190       0.70991353       1.95983652
H        2.33387872       9.48382599       4.99455329       0.32324491       0.58440545      -0.24134393
H        7.18391785       2.36738021      10.95892803       0.03312326       0.56344512       0.41582688
H        6.84995981       5.14199579       7.80047226       0.17203466       0.88069662       0.72347027
H        2.13162939      12.06370145      11.77310593      -0.32311620       0.00897517      -0.03259895
H       10.01867836       2.62548437       8.08003688       0.36261844       0.20698866       0.08224576
H        0.09937504       8.66237394       2.80038427       0.37424509      -0.96648971       0.70658351
H        6.27309788      11.50191031       0.82144690      -0.25934615      -0.80769485      -0.94349661
H        3.98040382       8.45758530       1.64963981      -0.21745613      -1.03761679       0.76149754
H        1.90017443       2.19145685       6.97561785      -0.13791880      -0.02886083       0.03268927
H        8.75715769       7.45601080       8.43009601       0.44350816       0.31488011      -0.23552458
H        1.98831265      11.29961498       3.62026806      -0.20373209       0.47026656       0.28471566
H        1.33293313       2.98597085      11.72490693      -0.20115752       0.59523861      -0.11326395
H        9.96667403      10.19433892      10.04391444       0.09059350      -0.02279859       0.30167738
H        2.96199951       9.34109234      11.48936494      -0.44523341      -0.20074141       0.21947937
H        0.02451108       1.27033412      10.05629086      -0.79965600       0.30208121      -0.96704478
H        5.56528109       0.20102110       4.58554858      -0.29461884      -0.04880935      -0.71400922
H        6.97831644      10.91913329       8.02516214      -0.59806633       0.20202271       0.26399998
H        4.56463427      10.93291837       8.49833700       0.78100461       0.75468564      -0.87402494
H        6.13040777       1.59716888       9.02385367      -0.62666124       0.58022134      -0.15973959
H       10.14924283      11.79136704       2.53145599      -0.10320203      -0.55715451       0.13495463
H        7.27196068       9.23949664      12.27978857      -0.30903991      -0.05075775      -0.56042909
H        1.36456664       4.08800948       8.57145163      -0.48821852       0.75732794       0.26637821
H        3.58828760       6.70107318       7.18994825      -0.25949821      -0.00652295       0.96047418
H        8.33617034      10.35535372       4.18045425       0.83417559       1.15574784       0.10294734
H        5.50002843       4.31158935       5.05887298      -0.30637393      -0.55673310      -0.17853551
H        8.00186893       6.17506338       3.16540885       0.06075373      -0.02736643       0.72626285
H       11.61923096       6.78349004       6.54399972       0.58855799      -1.05341173      -0.10229438
H       10.43965847       1.18893919      12.06592295       0.05440396      -0.69977689      -0.19786406
H        7.55164036       0.46968981       5.90324206      -1.38421233       0.04695817      -0.57013045
H        9.81862317      12.41925166       5.20011798       0.09616120      -0.48854740       0.08858504
H        6.97110181       7.77082243      10.33725131       0.42170414       0.82754418       0.24100546
H       10.39206516       7.88079827       4.69903191       0.83206092       0.55207226      -1.21303698
H       12.31812847       5.02017113       1.69230123      -0.08924622       0.37912373       0.21080812
H        6.63141257       7.74628068       8.10947442      -0.14751359       0.85092695      -0.37508899
H       10.62537478       8.57817504       9.27767600       0.38489463       0.01829726       0.25001940
H        1.88026613      11.01931307       8.10121310      -0.08762228       0.34021005      -0.28604983
H        6.15927630      10.10630991       4.37655622      -1.48654769       0.71577875      -0.23501529
H        4.17524943      10.68354788       0.83923207       0.51739041      -0.23250723       0.59501878
H        9.49136587       5.59627166      11.48821172      -0.21846672      -0.04936341      -0.02792531
H        5.72794968       0.94789435       1.27984997       0.12221233       0.09142701       0.15085005
H        3.04819185       7.36032591       5.40522040       0.53155349      -0.31635381       0.45267959
H        3.33664641       6.83725388       9.36444920      -0.11951160       0.33511767      -0.31468225
H       10.06981240       3.67142197       1.46784243      -1.47372231      -0.10108379      -0.06550569
H       11.39226596       3.08298197       5.10461655      -1.10373019       0.86848801       0.87582727
H        0.63121631       2.79784507       2.91885230      -0.43652137      -0.37425601       0.16018639
H       11.73288910       3.16592648      12.27427607      -0.20195696      -0.23056780      -0.12032501
H        3.84525058       2.31916192       0.93679110       0.93261273      -0.37228339       0.38000625
H        4.50145604       5.00580930      10.42304894       0.04570165      -0.48664929      -0.27842084
H        3.82014433       3.18917660       7.05609209       0.56319784      -0.00207496       0.03663725
H        9.38476084       6.97090191       5.38588888       0.31310824       0.07098213      -0.02450708
H       11.94172004       6.48277116       2.35503826       0.33375937      -0.64205879      -0.84145392
H        7.84591310       5.83851709       1.71420241      -0.15605571      -0.10579824       0.13069862
H       12.28865308       5.73955010       7.56204915       0.18130664       0.07842082      -0.50955512
H       10.30474141      12.18349170       0.31533240      -0.34718152      -0.24054504       0.82070910
H        8.24440407      12.28904940       7.15725974       0.15492522      -0.32250435      -0.73539419
H       11.01676367      11.41726970       5.43807176      -0.47654803       0.52120740      -0.66381410
H        6.15048411       6.57908935      10.01940271      -0.49186997      -0.57625731       0.01422859
H        5.59608791       2.11426498       2.36084511      -0.89573773      -1.11026680      -1.11293672
H        3.09934870       7.79498655       3.91740003      -0.23665836      -0.20637728      -0.33814204
H        7.10326831       9.01831033       7.26584797      -0.34002569      -0.26894788       0.21103336
H       11.26656637       8.33308664      10.69277473      -0.27201167       0.14053386      -0.13169584
H        1.82011080      12.42276001       7.14817344       0.11193175      -0.40307945       0.86711319
H        4.55777678      10.23837126       4.61147445      -0.28989940      -0.04158952       0.23060603
H        4.84541679      10.42684798       2.25499940       0.00148446       0.18930219       0.66001658
H        8.55300944       5.67709447      10.32147872      -0.22062885      -0.72870816       0.59741617
H        4.03640133       6.22278084      11.16748720       0.32605426       0.09429859       0.18444347
H        2.84149459       4.20685911       6.45221598       0.24784278      -0.59483753       0.83141523
H        2.33844728       7.96729783       8.67170555       0.23474992      -1.15657952       0.47807963
H       10.16997799       4.87700739       2.19647104      -1.00475825       0.17557293       0.10413290
H       11.32496579       4.36511458       6.00039205      -0.61444951      -0.52161375      -0.11786257
H        1.51303250       4.01015472       2.88494633      -0.77350077      -0.44498593      -0.35749441
H       10.45680711       3.61945798      11.65573103      -0.58910450      -0.12691637      -0.28456024
H        2.51238618       3.08435305       1.09346042       0.20885911      -0.48865722      -0.64073275
H        8.49804337       9.18267383       5.19974116       0.40607581       0.26262789       0.36923750
H        5.99129977       3.67400268       6.31737599       0.24393826      -0.29032623       0.44639813
H        4.93158805      11.62891905       7.05930828       0.22539103      -0.34921802       1.12467586
H        4.96391570       0.89527331       8.29644494       0.38938607       0.96163203       0.33933956
H        8.77010502      11.89361285       1.92926407       0.39841765      -0.51195660      -0.27799204
H        7.59713619      10.12340162      11.09015876      -0.20830793      -0.43188687      -0.35858775
H        1.47587291       5.57375000       9.01542175      -0.30881697      -0.30733465      -0.08736138
H        4.96895323       7.22561370       6.69012451      -0.34957067      -0.21318164      -0.03666342
O        4.21808427      10.16489088      10.59835218      -0.58811966       0.42104076      -0.12651821
O        4.09389858       3.37223096      10.48615662       0.93190615       0.82529178      -1.35790569
O        0.00904011       1.60756033       4.55206970       0.26988056       0.32537646       0.10184156
O       10.48559816       7.25546229      11.85107203       0.98679416      -0.82211822      -0.03665879
O       11.71006285      10.18983410       6.73630270       1.56397490       0.23380623       1.10513665
O        8.36281762       5.49929917       4.96064052       0.34331245       0.71522423      -0.78977024
O        0.58695709      11.94099272      11.06368240      -0.52203475      -0.92791750      -1.06039640
O        9.11332003       1.95477164       3.62570022      -0.29344267       0.02684106      -0.62097342
O        1.76777846       4.76389096       4.47133209       0.28229067      -0.16748709       0.33373109
O        0.65815317       9.81222274       1.78446037       0.38733558       0.64469620      -0.84625260
O        1.32087004       9.45703094       9.10577866      -0.94597012      -0.54599212       1.84243494
O        8.53102826       8.75157362       1.02325304      -0.83672220      -2.38107430       0.15205460
O        6.90841543       4.02439769       0.35476412      -0.13660273       0.37578482      -1.31126730
O        4.92961875       5.39256850       2.22502564       1.34291621       0.54054242       0.40891125
O        2.32821462       6.08875960      12.42772594      -0.58304180      -0.86624760      -1.81370362
O        2.64420281      10.42900672       4.91838711      -0.50104849      -0.76111036       0.80431256
O        7.46189544       1.77127819      10.26297456      -0.82967412      -1.26018004       0.34240260
O        7.03751055       4.22419110       7.65424656      -0.04361793      -0.80732571      -0.64728666
O        3.04657173      12.20241138      12.10361496       0.51972849       0.16922092       0.37662910
O        9.06575168       2.73603516       8.20897054      -0.27458709      -0.98815269      -0.28529998
O       12.36611292       7.82789513       3.36648383      -0.76879670       0.39171181      -0.24931556
O        6.76544310      12.32169050       0.69223849       0.45381213       0.70168728       2.39398211
O        3.58047705       7.71233827       2.19606297       0.37727616       0.29529586      -0.78933053
O        1.25066558       1.44508669       7.04170756      -0.09910104       0.03286734      -0.75481669
O        9.57849632       7.93418174       8.19128642      -0.72512213      -0.42756868       2.99275897
O        1.68562853      12.07855594       3.06078014       1.58061823       0.25980620      -0.83362260
O        0.71987583       3.75201976      11.65323385       0.62168405      -0.30822696       0.38366416
O        9.23567434      10.85023477      10.09723823      -0.47028552      -0.98190314      -0.32847665
O        2.05929124       9.00454950      11.79143485       0.80687327      -0.35482291      -0.16685998
O       12.02907212       1.63793453       9.22563026       0.93831920      -0.43424256       0.95462773
O        5.80803517       0.61339133       5.41285110       0.34985769       0.49325113       1.40874515
O        7.92311623      10.82518927       7.82351026       0.26530539      -0.75043490      -0.35341500
O        8.07794838       9.46879553       4.38447825      -1.22604250      -1.18165810      -0.59326534
O        5.46815233       3.44670068       5.51951354       0.00478604       0.69788956      -0.23805270
O        5.24386776      11.48229877       7.99976742      -1.06414095      -0.47894826      -0.30695052
O        5.27296854       1.81614373       8.55669786      -0.08031971      -1.35716973      -0.19515599
O        9.56714050      11.30036465       1.90667967      -0.47151694       1.26918797       0.37208799
O        6.90242390       9.47755950      11.37318264       0.61634966       0.28607320       0.45743778
O        0.82367138       4.81762574       8.98179074       0.79559113      -0.37795179      -0.05038670
O        4.27857996       6.53456276       6.53336011       0.78829681       0.28280122      -0.89297784
O       10.09496007       7.64171260       5.56587509      -0.98922935      -0.62865796       0.94392972
O       11.78326695       5.83858800       1.57135686      -0.03613988       0.41995076       0.68275205
O        7.52928250       6.48589688       2.38153455       0.05874240      -0.12260756      -0.92311921
O       12.24821632       6.00414237       6.60653259      -0.65336506       0.60761266       0.32058988
O       10.43662455       0.19568689      11.89861333       0.31000453       0.77312425      -0.49010126
O        8.39952359       0.41400397       6.33724432       1.63766225       0.80419539       0.85476585
O       10.60274808      12.01386875       4.74188417       0.17326398      -0.19056359       0.73257359
O        6.98438759       7.00798658       9.73811040       0.62703506      -0.05917480      -0.41337601
O        5.05388580       1.49718970       1.76787220       0.54516979       1.33684636       1.47822340
O        2.47254131       7.58281220       4.65589430      -0.20091969       0.42505568      -0.30540495
O        6.40430266       8.32461263       7.32228786       0.37438504      -0.57204150       0.19693139
O       11.22166583       9.01053041       9.96786727       0.15831964      -0.29772522      -0.50696265
O        2.22248225      11.50938293       7.32148351       0.27868656      -0.32408348      -0.33496610
O        5.31743819      10.64829516       4.16873909       1.79509745      -0.81039066      -0.34471711
O        4.89140078      10.18416094       1.31541800      -0.52839068       0.28957318      -1.06245260
O        8.84757208       5.02009058      11.01061834       0.42821141       0.94696233      -0.40329748
O        4.69686782       5.97712017      10.48518157      -0.89227414       0.16566177       0.39561815
O        3.00820122       3.66644899       7.27656881      -0.83930135       0.44334417      -1.00173703
O        2.61572043       6.99246409       8.70919494      -0.21289195       0.69000496      -0.17471588
O        9.41641747       4.25363005       1.97540109       2.16735519       0.20275727      -0.17354462
O       10.74867389       3.60296263       5.69513402       1.56411833       0.13040972      -0.73928700
O        0.96534683       3.42686232       2.26761479       1.02277825       0.94809928       0.12728759
O       10.75898105       2.94729910      12.28396795       0.25993801       0.02840620       0.39614230
O        3.11915135       2.69290614       0.40407990      -1.37287885       0.52819632       0.59326284
192
Lattice="12.429 0.0 0.0 0.0 12.429 0.0 0.0 0.0 12.429" Properties=species:S:1:pos:R:3:forces:R:3 energy=-936.6812030389227 pbc="T T T"
H        3.11232487       7.09276572       1.48077154      -0.33443477      -0.02262494      -0.11809279
H        5.26650802       0.82197453       4.01669538      -1.28694271      -0.87441210      -0.85577229
H        6.15541886       9.01056698       9.01321943      -0.16069387      -1.70554729       0.11429675
H        4.69191456      10.37313714       6.10492353       0.41167639       0.08610849      -0.46151725
H        9.32590815       6.74607932       1.69492526      -0.17473751       0.08514844      -0.13986043
H        6.10252084       4.37252993       6.00587770      -0.28479830      -0.19280018       0.29151666
H        4.59791658       4.31071877       8.38533179       0.02441095      -0.86500195      -0.59459605
H        8.09661248       0.35956468       9.20051480       0.22647927       0.45482214      -0.15335936
H        3.62314655       9.88430989      10.66231759      -0.30399304      -0.31668442       0.14077516
H        3.30985487       5.97485723      10.33782229       0.31902133       0.10984849      -0.45810752
H        0.25205274      11.18347376       3.16476447       1.64939615      -1.46156091       2.40516754
H        9.48844883       2.57521578      11.24694237       0.24695232       0.46056761       0.05667371
H        1.28789516       2.40683209      11.28859957      -0.90535308       0.11137648      -0.13380144
H        7.54868969       7.53051166       7.38273263      -0.53191879       0.99044821       0.81230640
H       11.05255594       5.32471187      11.65945486       0.32585879       0.10638513      -0.10111466
H        5.73626319       7.91830779       4.80145826       0.31677739      -1.28395343      -0.30948422
H       12.22744485       7.22826974       7.75748453       0.67363541      -0.06599902      -0.04467974
H        3.19206030       0.67084537       2.77297054      -0.93826783      -0.09330107      -0.51969322
H        6.55362056       4.70829142      12.21633185      -0.58491414       0.87429797       0.20581911
H        6.28753544      11.87628169       5.20545270      -0.13637726       0.70958368      -0.15183697
H        0.83498941       1.20050917       4.07524598       0.41822812       0.87771770       0.37961492
H        7.90828276       1.65289021       3.42112909      -0.18236769       0.17230371      -0.89802578
H        0.47165961      11.34216097       7.15629235      -0.60824000      -1.14225760      -0.66460698
H        9.31653944       3.55238608       3.52773246       0.59677795       0.30512909       0.54336086
H        1.25344950       8.45907232       6.93771754      -0.20897366       0.58337194       0.93931818
H        7.19785594       9.48179835      10.72192410       0.56368868       0.37521330      -1.19244840
H        8.57013641       8.31601647      12.25805962       0.27561456       0.20981948       0.13232251
H        2.63235852       5.87603904       5.54968951       0.18673923      -1.04781468      -0.10949278
H        1.75882476       6.57231308      12.13608408      -0.45935921       1.61339685       1.37702085
H        5.15134025       6.85475027       9.60150704       0.16552942      -0.04833025       0.37941964
H        7.51524512       2.78463855      10.71940427      -1.75042346       0.57921267       0.37021793
H        2.28479081       0.89522300       0.83788138       0.08918743       0.78706438      -0.01838776
H        4.51243297       6.57207311       1.12264745      -0.06190204       0.28854589       0.41802370
H        5.81078036       1.97677513       4.80717151       0.69591767      -0.75005960       0.12106402
H        4.99312027       8.77875713       8.10538892       0.28033696      -1.44331514       0.46713976
H        3.61170744       9.33996474       5.52329661       0.42987877       0.67634373       0.33760731
H       10.45945034       6.83595260       0.58493652       0.40210025      -0.17909526       0.01260790
H        7.24687898       3.87717375       5.08490936      -0.27922278      -0.03297955       0.10811932
H        4.56765923       2.98441017       7.42697885       0.25431501      -0.13706972       0.60861412
H        8.44233652       1.62396744       8.40174149       1.36469698       0.40877826      -0.73825460
H        2.26390355       9.21090585      10.43862965      -0.16095700       0.03221403       0.04299831
H        2.13282610       5.62470019       9.34134751       0.16135915      -0.05076564       2.10138400
H        0.51996104      10.73675101       4.77581083       0.01106761       0.22950557      -0.56573673
H       10.01845418       3.69281575      10.45713333       1.35835287       0.62381130      -1.69598916
H       12.40017478       1.58629808      10.82500410       0.48606639       1.86899644       0.91845662
H        7.66870347       6.06981670       7.61225861      -0.34621889      -2.47102658       2.64200419
H       12.28891124       5.61416971       0.10998773      -0.42649250       0.19260290      -0.17764035
H        6.47590133       6.72248326       5.53770748      -0.88427033       0.59512595      -1.93996879
H       10.74719513       7.21101061       8.03432633       0.13439287      -0.33341310      -0.10868226
H        3.11250848      11.72232862       3.57139442      -1.34705928      -1.19621263       0.12317047
H        6.56489952       5.57749072       1.11010349      -0.04591725       0.07986810      -1.00080646
H        7.10236175      11.17325373       6.31605813      -1.07573627      -0.35677248      -0.89104501
H        2.09817824       2.09505583       4.42178359      -0.31456454      -0.27234434       0.05602651
H        7.24441067       2.58093057       2.32523883       0.16952919      -0.89277651       0.09975056
H       11.59952416      10.64211008       6.48595392      -1.08464815       0.39661452       0.28755253
H       10.27142606       4.63345690       4.41825948      -0.99608739      -0.99637053      -0.85166258
H        2.02910061       7.30336544       7.34594175      -0.48794660       0.56029063       0.68867227
H        8.11028082      10.19759783       9.58737962       0.44328603       0.08751907       0.00411106
H        7.45486021       7.37693831      12.16107061      -0.86442528      -1.32766964       0.14933755
H        2.87773179       7.29549852       5.06586730      -0.30015531      -0.01125476      -0.04892447
H        2.07819448       8.05797967      12.38955682      -0.44334256      -0.25864671       0.33821579
H        5.21009466       6.07563543      11.01760248       0.43686750       0.23736191       0.32262332
H        6.96915197       2.66776588      12.07414657       0.31262728      -0.79154386       2.57791938
H        2.07255992       2.37032387       1.43193434      -0.06697926       0.63443454      -0.64348845
H       11.89475918       5.26260141       5.86878139      -0.28674452       0.85950692       0.55950603
H        0.76449768       8.09499033       9.54463177       0.39822849      -0.57707607      -1.01182591
H        5.83473758      11.98815780      10.25375591      -0.42673153       0.41990602       0.21824907
H        3.76581477       2.89733280      12.03902617      -0.05006553       0.53359069      -0.11345134
H        9.54151316      11.95260243       5.72985271       0.11386141      -1.27878237       0.55960747
H        0.95288127       1.03437321       7.72154298       0.78526824      -1.19309141       0.37379514
H       12.02894906       2.98400199       0.44418898      -0.18723608       0.23740136       0.21254468
H        9.26423487       7.21863293       9.56638009      -0.15241247       0.39693473       0.02401260
H       12.32791804      10.34236329      10.28018680      -0.14489805      -0.59603801      -0.59376040
H        5.12326302       3.44156046       2.22929019       0.26270995      -0.44847880      -0.63766046
H        1.17825335      10.97796165       1.02424616      -0.37638660      -0.06718868      -0.14952056
H        5.60100615       0.67367145       6.83182763      -0.34543058       0.56611979       0.53751246
H        7.07658995      10.49142229       3.88153406      -0.18261619      -0.21257856       0.88846315
H        9.88689104       0.54845312      11.96166734       0.66276791      -0.05095994      -1.37899658
H        6.07259490      10.28111752       1.73417672      -1.15237097       0.15840604      -1.84764859
H        0.00115104       6.84199253       4.04697994      -0.43361919       0.09851623      -0.10491656
H       10.15029553      10.93856711       9.42853996       1.56791346      -0.81365836       0.69429099
H        1.22211416       3.40803812       7.73297450       0.29509940       0.12484356      -0.02013986
H       11.27802519       1.95785168       7.69280371       0.88661981      -0.34295871      -0.00052372
H        3.71550923       0.03181786      11.05795204      -0.28670594       0.35272599       0.51024845
H        2.19488009      11.73685055       8.87956192       0.23011223       0.00378165       0.10521100
H        5.00685180       4.90730984       3.90141198      -1.03266691      -0.05906281      -0.41785893
H        9.05196011      11.41699079       0.67875719      -0.44893293       0.09454179       0.30801258
H        4.35382388      11.84339316       8.50207741       0.06965856       0.48577705      -0.30694933
H        8.84249309       7.71284549       5.44131928       0.58551830       0.98642060      -0.20451905
H       12.13121562       4.20692103       9.77675972       1.17273951      -0.43042549       0.44955407
H       11.86339532       1.53555889       2.35170669       0.85679277       2.31317724      -1.61947797
H        6.91832753       5.58373027       9.72732599      -0.30464455       0.35835658      -0.14153914
H        7.18125747       6.38273460       3.16647863       0.30708433      -0.30632049      -0.61184870
H       10.26497252       1.66208107       5.72467863      -0.45618586      -0.38658374      -0.06612389
H        3.68833531       8.41945375       3.17768588      -0.27116588       0.12107124      -0.68085930
H       10.47024713       8.86994035       1.94188434      -0.26079949      -0.20948194      -0.60383884
H        5.63172607       9.71165793       0.31958278       0.57982403      -1.09436188      -0.64465987
H        0.63547858       8.00032606       4.67967279      -0.25561462       0.33687415      -0.00389526
H       11.90653722      11.14817403      11.36983953      -0.05975930       0.85087010       0.89427101
H        4.95262595       1.97796613       1.96748293       0.15815151      -0.40238662      -0.23953698
H       12.09425079      10.54955964       1.25005309       0.75247125       0.48175145      -0.54896439
H        5.61208018       0.92542755       8.39413804      -0.32542110       0.70094992      -1.11861765
H        8.36063685      10.14709582       3.08322764      -0.70855205       0.33034903       0.13125896
H       10.02543798       0.21244178      10.33099689       0.21539258       1.49181310       1.55481286
H        8.74582667       0.45535899       1.32332317       0.57001792      -1.09036879      -0.20241014
H        3.64204593      10.60070380       7.98392373      -0.45265407      -1.09641437      -2.08145284
H        9.49069642      11.37441663       8.09407033      -0.09612424      -0.04635235       0.87618010
H        2.40742803       4.48620106       7.60687346      -0.63775260      -0.89904401      -0.07314977
H       10.40569929       3.12571964       7.94138515       0.11597508       1.61990625       0.54553896
H        2.70005196      11.54938304      11.74750879      -0.16005583      -0.20996649       0.00294209
H        0.70777149      11.90918405       9.35784444      -0.73896418      -0.16387763       1.09733423
H        3.85506650       5.23968782       2.83695192       0.37388633       0.35296456       0.31824376
H        2.32522674       9.13964763       3.72669871      -1.13994229       1.04640400      -1.08407400
H       11.52209944       9.04052298       2.95939173       0.16734313       0.62051184      -0.13637323
H       10.13351565       8.03663172       4.64504046      -0.63090998       0.79952322       0.61377898
H       11.41573659       5.15081866       8.77487170       0.14074777      -0.09510704       0.12448470
H       11.12765774       0.22464458       2.30333311       0.48267527       0.69399632       0.70753976
H        8.22471678       5.11629724      10.26852603       0.33825964      -0.13512356      -0.36311120
H        8.25469518       5.28882531       2.94206151       0.22852206      -0.19181805       0.28352511
H       10.27253013       0.98099785       4.31385812       0.59937429       0.15424592      -0.55892063
H       11.07218639       3.75356456       1.44240529      -1.03783005       0.29529383      -0.18109494
H       10.48319929       7.88112409      10.15964743       1.76349934      -0.15180102       1.48401192
H        0.18058193       4.14410564       5.25210298      -0.47069284       0.40533000      -0.89158508
H        0.24497218       7.82437166      10.95724951       0.04880622      -1.36449334       1.41306831
H        5.77161778       1.02986255      10.71384743       0.58858112       0.96860814       0.40953713
H        3.18358290       4.25141047      11.44971641       0.15814820       0.26061391      -0.61481591
H        9.47520304      10.27768393       5.77906231      -0.14510780      -1.40460641      -1.21142304
H        0.69039109       1.72338641       6.21286898       0.37752897      -0.26577950       1.80027744
O        4.00396577       6.96859725       1.86727912       0.34937194      -0.42667154      -0.47608360
O        6.04873623       1.05232435       4.50485590       0.55942560       1.50627611       0.85169865
O        5.59503118       8.18816464       8.66589184      -0.04925563       3.09589809      -0.84607810
O        3.87911395       9.88476255       6.30882321      -0.69027322      -0.79948312       0.18477393
O        9.89224967       7.35867017       1.18802828      -0.48400959       0.36643345       0.15726230
O        6.29403664       3.74967521       5.28910143       0.74648313       0.24419532      -0.42544279
O        4.34985427       3.93510957       7.50554578      -0.07305928       1.25007543       0.17682140
O        7.75993230       1.23581721       8.92737064      -1.58842708      -0.70063581       1.01163479
O        2.90254431       9.41608657      11.14086469       0.53556770       0.33317453      -0.12350789
O        2.35488375       5.77626068      10.33255030      -0.86475419      -0.07635435      -1.57476784
O        0.85464034      10.63407305       3.83720976      -1.08704824       1.37937950      -1.64152944
O        9.43989207       3.57635760      11.19127282      -1.22439646      -0.97247727       1.55331669
O        0.29826728       2.48953008      11.18712770       0.36240044      -1.73186512      -0.56727421
O        7.82921053       6.71661988       6.98911444       0.70867778       1.55118750      -3.66982723
O       11.61831562       6.06329913      11.97826177      -0.14480269      -0.69267734       0.06757210
O        5.98488700       6.95984811       4.64008104       0.82281818       0.71909601       2.30944985
O       11.46392232       6.64046788       7.65824631      -0.87386778      -0.04132435      -0.04746254
O        3.61954565       0.05791570       3.38815028       2.30032909       1.28505250       0.62256013
O        6.22444700       5.58386675       0.15431982       0.64772770      -0.79674302       0.65803955
O        6.27087088      11.06820354       5.74991946       1.60997173      -0.28756426       1.11752472
O        1.15520185       1.96151586       4.63906625      -0.22060498      -0.52781560      -0.55402740
O        8.03998357       2.00981622       2.50300243       0.34075027       0.37474644       0.65637472
O        0.12377558      10.62996480       6.51605480       1.66762560       0.49806858       0.36463953
O        9.35003441       4.39750429       4.03916593       0.33552431       0.23237015       0.19703369
O        1.49017946       8.03233451       7.79425531       0.67602998      -0.63787481      -1.27950347
O        7.19783699       9.99719773       9.85013643      -1.43950033      -0.22282934       1.11112229
O        7.67173730       8.26149295      11.89488224       0.32067348       0.99333661       0.03916498
O        2.27636852       6.75559524       5.63098422       0.22665394       0.53997194      -0.02611758
O        1.56656663       7.32610695       0.40056411       1.26439527      -1.21726849      -1.88521178
O        5.08427210       5.96644688      10.06355713      -0.33979080      -0.07130603      -0.70196140
O        6.65348131       2.96262380      11.25221517       1.06909225       0.03878307      -2.86097718
O        2.19629896       1.45063744       1.65266331       0.08309949      -1.15927016       0.33023389
O       11.92459052       3.34676755       1.36608977       1.32730227      -0.59558818      -0.27040730
O        9.85341972       8.00279564       9.48578021      -1.94038357      -0.12865500      -1.53478137
O       12.02049993       4.90122571       4.98223201       0.58406391      -1.08443002       0.42952939
O        0.28008979       8.46590658      10.27574260      -0.50116900       1.86514601      -0.45382827
O        5.22562305       0.33499342      10.35162980       0.47257800      -1.32894095      -0.61635307
O        2.99853151       3.50062497      12.01373419      -0.24704584      -1.06499039       0.80675715
O        9.50403986      11.07266405       6.28388417      -0.01857562       2.73614970       0.97137423
O        0.55913483       1.75893047       7.24260083      -0.93609053       1.75325821      -2.07813115
O        5.40130542      10.37400865       0.95125424       0.70624827       0.94562319       2.46918163
O       12.27002170       7.80543704       4.15348113       0.36484965      -0.74981116       0.09504265
O       11.81608659      11.16321844      10.40749011       0.47837239      -0.71335814      -0.24736069
O        5.50774259       2.70779052       1.65117212      -0.66559395       1.04796141       0.81043681
O        0.27246490      11.17932331       0.72135678      -0.62978122      -0.74617167       0.77616286
O        5.12252902       1.16370380       7.54610718       0.56340603      -0.97042358       0.42873885
O        7.51041356      10.65239970       3.04483210       1.00356014      -0.29747821      -0.98173451
O       10.24866239       0.89245799      11.06693379      -0.84791287      -0.82824789      -0.22173217
O        9.44662399      12.25772138       0.94926966      -0.44513118       1.07980802       0.57160014
O        3.87440065      11.05260104       8.76997739       0.10029687       0.38449961       2.27426305
O        9.40246792      11.41454458       9.10364177      -1.18829636       0.36947055      -1.92609989
O        1.43673786       4.37432687       7.77479706       0.51361115       0.71353850      -0.14083763
O       10.34736633       2.19571559       7.81909219      -1.12693144      -1.45604735      -0.75457669
O        2.88085277       0.06040371      11.60249650      -0.03212368      -0.07001592      -0.13570765
O        1.31148136      12.08150599       8.63989028       0.44228201       0.24189229      -1.15582660
O        4.14897212       4.58917572       3.50733319       0.61687843      -0.37037660       0.15467135
O        3.10230953       8.63815480       3.91431115       1.42348442      -0.79070918       1.52242327
O       10.98894393       9.59660384       2.33377085       0.24341993      -0.18108548       0.55654720
O        9.35154315       8.49258042       5.07445008       0.19045163      -1.70970335      -0.37397317
O       11.31343245       4.32638473       9.31441157      -1.21876391       0.83808788      -0.65051430
O       11.57823675       0.86755443       2.92852705      -1.54841563      -3.12189510       0.83637585
O        7.87440330       5.66344667       9.53477810       0.10764173      -0.46938549       0.63559061
O        7.66071618       5.88608150       2.43991458      -0.59713445       0.68458659       0.67615278
O        9.75787330       1.06008385       5.12825534      -0.32432657       0.24966742       0.57408769
192
Lattice="12.429 0.0 0.0 0.0 12.429 0.0 0.0 0.0 12.429" Properties=species:S:1:pos:R:3:forces:R:3 energy=-940.1364522254656 pbc="T T T"
H        3.96821116      11.12695651       0.16323553      -1.17315986      -0.02195551      -2.21178576
H        4.61432829       2.29300885      11.55497853      -0.39973043      -0.00985556      -0.03724028
H        1.25540373       0.48254535       3.25191452       0.10310318      -1.78351406      -1.68448276
H       10.18961253       8.49689480       0.74929719      -0.28929943      -0.17251130      -0.01254274
H        2.14638754      10.71287259       5.06091339       0.05975519       0.03588975      -0.05520216
H        8.62392540       5.52048007       6.83375958       0.93580786       0.00335456      -1.54549118
H       10.98484283      10.96754386       9.92018905       1.19336413       1.31580634      -0.11034844
H       10.99485145       2.33777264       2.98164777      -0.43137850       0.34316581      -0.14783627
H        3.61857688       4.87246509       4.64343121      -0.26331011       0.09260643      -0.01946803
H        0.64622407      10.32290766       1.63967030      -0.21801492      -0.59005155       0.01141212
H        0.89548612       8.63429890       8.09807089      -0.73219035       0.17997002      -0.03530220
H        8.70759762       9.70417110       2.52116468       0.31475042       0.35710765       0.44675690
H        8.23886997       5.03673129      12.34570595      -0.15521628      -0.02219103       0.60885742
H        6.56385748       5.32001431       1.51942414      -0.46939752       0.38788604       0.72989991
H        1.88225914       5.42792438      12.16718057      -0.71422129      -0.59291681       0.72705123
H        3.90407668      10.29163123       6.09935171      -0.27850871       0.52813672       1.29612472
H        8.15838025       2.26364864      10.51493155      -0.63009981      -0.17315573       0.44055285
H        8.46990040       4.31668981       8.71053996       0.73763040      -1.40691478      -0.05333607
H        1.35852589       0.84527376      11.14564874       0.35320467       0.63281084       0.03136525
H        9.03817271       1.83792927       8.65273937       0.66148758       0.98853443       0.07774664
H        1.70833229       7.67697961       3.78777875      -0.52034496       0.27179044      -0.51974138
H        6.70867993       0.03954276       1.48251097       0.49679652      -0.00630953       0.17759532
H        5.07397178       6.72102869       1.44438310      -0.93839501       0.83399088      -0.02812457
H        1.82019716       0.96906965       5.25002163       0.06547860      -0.62881215       0.03471749
H       11.37996800       8.13750431       7.00079189      -0.01248605      -0.40485834      -0.24947692
H        1.67994157      12.22095066       0.80425609      -0.10920371       0.06520817       0.18941330
H        0.79717490       3.49904351      12.09610208       0.22259932      -0.52919150      -0.71027986
H        7.55999527      11.57758393      11.46438511      -0.43466076       0.16400974       0.92868077
H        1.68914427       8.01903833      11.70353344       0.13558887      -1.04697732      -0.05820911
H        0.73623358       1.09171108       7.46869254      -0.30290280       0.36869294      -0.09668803
H        6.40490219       3.00437628       4.90951739      -0.39004887       0.14756846      -0.13729839
H        7.15335221      11.53728776       9.04614060       0.35809235      -0.21161077      -1.02639355
H        2.80820776      11.35603830      11.44619446      -0.48843261       0.97874186       0.37516619
H        4.53468377       1.54682899      10.19801920       0.11832207      -0.42595314      -0.46818943
H        0.34185107       1.52315180       3.89036868      -1.54124835       0.17954862      -0.00852302
H       10.95120618       7.14081667       0.50259617      -0.38637405       1.22903136      -0.52104159
H        1.06419002       9.62802637       4.90737404      -0.02912405       0.06451931      -0.16396011
H        9.38215073       4.64073440       5.78788835       0.44205254      -1.15795213      -0.06901095
H       11.18014035      12.36086757      10.57398070      -0.40130828       0.36039947       0.35766767
H       10.44042516       1.86243082       4.32909692       0.07251222       0.39768312       0.46370860
H        2.07849951       4.86079455       4.92480145      -1.06357667      -0.36847766       1.13347841
H        0.05972128       9.08854018       0.78329461       0.07731413       0.90631590       1.09406953
H        1.55588645       8.94109619       9.49233457      -0.18263250      -0.31771512      -0.11736656
H        8.24476738       8.27448778       2.36184993       0.62751395       0.65741040      -0.56243001
H        7.67275983       3.65030814      12.25562408      -0.33147437      -1.38798770      -0.46040992
H        6.81693756       6.36062843       2.63626039       0.30225873       0.17721098       0.23941298
H        2.92527720       6.54159096       0.21287088       0.51560552      -0.07639830       0.67089983
H        3.98545856       9.11532712       5.14562683       0.14467477      -0.83690432      -0.63342071
H        6.65695025       2.14076425      11.11092516       1.12500939      -0.27000573      -0.23799267
H        8.12633858       5.70170723       9.08579875      -0.21440254       0.59242157       0.00560433
H        0.70025849      11.96741550      11.03661950      -1.46670162      -1.14799431      -0.84608953
H       10.21915907       2.73230774       9.41595059      -1.37103849      -0.26092567      -0.45864251
H        0.57444575       8.32032920       2.87621736       0.10906652       0.88032425      -0.72072430
H        7.50984146      11.10833998       1.53474533       0.06287581       0.32446806       0.16408309
H        4.75204527       8.10362629       0.74763060      -0.21854090      -0.58669721       0.25835066
H        2.71702784       1.48584381       6.39666033       0.00160723      -0.22224991       0.22420082
H       11.43960247       9.66668044       7.14407325       0.06830896       0.13975655       0.07011956
H        2.77858149      11.83176760       1.88541181      -0.88393116      -0.03955064       0.08614101
H        1.71151293       3.71678077       0.96064283       0.79119813      -0.78007839       0.69737771
H        8.47525338      10.51619392      10.80193705      -0.22338260       0.39578748      -0.23803531
H        1.85516634       9.50684072      11.73108313       0.25028125       0.29056566       0.02651298
H       12.28986679       0.63156472       8.58874608      -0.72155055      -1.39358970       1.10924044
H        6.56942830       1.41380746       4.84658475      -0.45680862       0.09917917       0.43868440
H        6.29299920      12.13114270       7.94756195      -0.00551605      -0.22742203      -0.10707634
H        4.99543813      11.71760301      10.33849330      -0.40703164       0.09070225      -0.15095474
H        6.70540961       4.04624871       7.80252563      -0.37865871      -0.08690521       0.28837463
H       10.87177767      11.01836258       2.32458359      -0.91548077       0.95022941       0.19873946
H        7.11461957       9.08287064       0.29236827      -1.07926577       0.16550013      -0.09275049
H        0.96682318       2.51569373       9.49320931      -0.48792221      -0.39672064      -1.68772127
H        4.77199719       6.61211153       7.45151567       1.15904951       0.04933462      -0.63285357
H        9.38145872      10.34921451       5.10200662       0.24357175       0.08564523       0.02171043
H        5.77211304       4.74903615       3.93214022      -0.61029717       0.48931453       1.21847649
H        8.36084609       6.51987953       4.36044097       0.11411301      -0.04505818       0.18934009
H        0.15550299       5.29412823       5.82766319       0.09808090       0.23579506       0.48265497
H        9.23621521       1.03436665      12.06867706       0.76043343      -0.40723121       0.39472369
H        8.63564408       1.00639358       6.21831632      -0.21561303       0.23102744       0.16332324
H       10.43347146      11.98425397       6.44500372       0.66194321      -0.52438285      -0.32929565
H        5.98404572       7.86120426      10.58370430      -0.46276954       1.07927004       0.62654895
H       11.48074149       7.53072744       4.86270744       0.46151123      -0.24768106       0.28210038
H        0.08910298       5.35221159       1.32880313       0.43930771      -0.18823783       0.11425424
H        6.68036321       8.31629655       6.45722486       0.98144357       0.41358514       0.76941194
H       10.75872734       9.03692855       9.31945880      -0.40105907       0.17410389       0.05840089
H        2.52602418      10.42720398       7.87045509       0.03851098       0.01682417       0.00000194
H        7.05601518      11.34649503       4.85053797       1.04196567      -0.13473033      -0.25108510
H        5.23036571      11.34822842       2.83314612      -0.39195584      -0.22065773       0.32045553
H        9.27391254       6.89576633      11.62568504       0.47711668      -0.15632403       0.21578702
H        7.49821440       1.72419630       3.35457790      -0.26356907       0.44708319      -0.90632165
H        3.40630654       6.85694731       4.07292916      -0.07865249      -0.37463852       0.17860058
H        3.56790815       5.84186501       8.69254076       0.52884170      -0.77147441       1.49383175
H        9.38693239       4.06183834       1.74379396       0.22377247       0.24439393       0.55427801
H       10.62529844       2.27570751       7.02631500      -0.27372571       0.97271691      -1.28576435
H        2.23956188       2.63559718       2.78132813      -0.70351848      -1.23813233       0.73376541
H       10.91563919       3.38674868      11.53430723       0.62653338      -0.22800180      -0.07877563
H        5.42215053       2.09282513       1.26560531      -0.97147611      -0.33821515      -0.11682330
H        4.62070267       4.20516519      10.28060456      -0.11881810       0.81527856      -0.08288676
H        4.08087137       3.43728757       7.89374490      -1.62324757       0.11077058      -0.63637108
H       10.46191522       6.60696983       5.53876446      -1.13435817      -0.66264974       0.34497144
H       12.29158119       6.28661397       2.64046755       0.62080807       0.16409711       0.00788672
H        8.92799661       5.94430337       3.10388180       1.16553319      -1.74905912      -0.74027877
H        1.14238801       4.64014262       6.93105015      -0.98928033       0.27864610      -1.44672032
H       10.12944056       0.34753742       0.77243777      -0.11167792       0.15224901      -0.70251845
H        8.28591918       0.06245985       7.44727949       0.39427204       0.22622167      -0.44213294
H       11.81908546      11.56202500       5.69862237       0.10376214       0.13620239       0.04006957
H        5.58763237       6.35687547      10.29044366       0.91052725       0.96647458       0.02407927
H        8.01331054       2.39455259       2.02758239      -1.11384553      -0.78848924       0.41107371
H        3.94391600       7.68650768       2.89719966      -0.03748280       0.22116017      -0.62332037
H        7.35668448       9.33376940       7.46503913      -0.25957343       0.41577399       0.11496109
H       10.55873415       8.89087573      10.83039514       0.48849025      -0.70017383       1.25507756
H        2.68465065      11.75336418       7.00803222      -0.45027465       0.65249531      -0.23613431
H        5.59619585      11.19679019       5.09712909       0.82398851       1.43881733      -0.88844768
H        3.97213127      10.64142116       3.50759686       0.62612412       0.15684052      -0.09394635
H        7.82966401       6.70278715      11.18779848       0.04607558      -0.73001499      -0.44534940
H        3.61565558       5.18982034      10.98607161       0.61009055       0.68781482      -0.48629429
H        2.62479763       4.15054804       7.76452006       1.03913430      -0.48990085       0.03644923
H        2.79228779       7.07885865       8.31578334      -0.81875024       1.28721717       0.37229522
H       10.66418651       4.78647392       2.22261520       0.82227548       0.60949469      -0.19939047
H       11.49144562       3.26510312       6.28978526       0.74511554       0.45115518      -0.22134477
H        2.67953354       4.07169851       3.01860706       0.13556978       0.66784522       0.45763430
H       10.09534188       4.33047118      10.80644144       0.73140214       0.43925116      -0.42197050
H        3.91736233       2.51406769       1.43382080       0.47190359      -0.46861215      -0.22931293
H        8.14631709       9.42913609       5.47014975       0.74767750       0.72302103      -0.77277996
H        5.63483457       5.37280161       5.45100414      -0.00111663      -0.60172988      -0.53775876
H        4.27010068      11.70846019       8.94256819       0.15190429       0.67785202       0.54796427
H        6.12312692       2.87209545       7.03303716       0.12622284      -0.20594238       0.01215330
H       10.29039654      12.36870124       2.95684032       0.67617476       0.76652929       0.77010759
H        5.72308087       9.83614995       0.35095237       1.08496273      -0.60313550      -0.58684523
H        2.38900021       2.64278852      10.17519339       0.36275990      -0.00712871      -0.50799610
H        6.31784809       6.73573436       7.75709951       1.12310783       0.12933338       1.62147748
O        3.68935729      11.00439455      11.60715590       1.91867479      -1.16583488       2.41408043
O        4.59181221       2.44839022      10.57399093       0.05661733       0.20585849       0.79980367
O        1.23191011       1.18901487       3.86626779       1.32842232       1.93924133       1.10035822
O       10.51196844       7.92185808       0.02113713       0.73438497      -1.24297553       0.82320145
O        1.18786839      10.58803852       5.02772313      -0.20595880      -0.15040427       0.00918654
O        9.05925789       5.53093852       5.88627597      -1.38182236       1.12302540       1.32607063
O       11.57193482      11.83786430       9.85886367      -0.86035950      -1.59767542       0.23557713
O       10.98201649       1.57329806       3.57973695       0.09597600      -0.23084897      -0.08824588
O        2.73273629       5.20183099       4.32137683       1.58238500       0.12528346      -1.07085819
O        0.02518645       9.54213702       1.68681427       0.20121482      -0.00616087      -1.14761590
O        1.75002142       8.70789977       8.55882625       1.16572622       0.17994527       0.24217485
O        8.57067560       9.05227411       1.81781122      -0.61934808      -0.89500133       0.20920794
O        7.85831950       4.29995913       0.50525134       0.45711427       1.26956858       0.42574934
O        6.07236931       5.90237867       2.19151641       0.92033543      -1.58322014      -0.87208987
O        2.38884060       6.20162498      11.90892112       0.27020116       0.83782556      -1.15786290
O        4.34377135       9.99795085       5.29787048       0.10850053       0.14776148      -0.29617064
O        7.62508961       2.00773632      11.32980509      -0.65500513       0.56535014      -0.48831646
O        8.08461848       5.10398485       8.32203512      -0.25682503       1.02099747       0.34955322
O        1.35664240      12.39703053      11.56721648       0.81347243       0.65350274       0.38475573
O        9.24487401       2.68806972       9.15067348       0.58624580      -0.79446913       0.17837182
O        0.72499702       7.76955889       3.65185210       0.25150736      -0.88895700       1.14091982
O        6.76950547      11.56928711       1.11146735      -0.31979317       0.02089522      -0.42461646
O        4.29180127       7.37274842       1.23358488       0.58189042       0.01546483      -0.53300118
O        2.25139877       0.67177010       6.11238410       0.13193171       1.01163921       0.38809061
O       11.66384666       8.83705504       7.62430175      -0.25981691       0.44375978       0.21941524
O        1.79064761      11.94606072       1.74558016       0.85972498      -0.28879729       0.09287242
O        0.96578991       4.03051007       0.44500290      -1.09004742       1.25389366      -0.10108294
O        7.96964842      11.34013086      10.63521835       0.58423006      -0.50010309      -0.75191238
O        1.23573137       8.82522340      11.43377446      -0.32586696       0.73997746      -0.05689889
O       12.39136278       1.37713836       8.01525461       0.99312181       1.08845295      -1.08053763
O        7.00242542       2.26151618       5.09000468       0.61987301      -0.72002717       0.31894284
O        7.08250943      11.56088571       8.02905790      -0.17722701       0.15096534       1.21847792
O        8.57488254       9.97724543       4.70972270      -0.77382134      -0.43652815       0.41303961
O        5.35736009       4.62398830       4.84394315       0.71347496       0.29403724      -0.61957165
O        4.79728253      12.28899189       9.56998405       0.04263529      -0.28492810      -0.77120428
O        6.13660887       3.25317154       7.92772568      -0.25161798       0.04157406      -0.29400858
O       10.08903454      11.64620235       2.36954601       0.27424638      -1.88874438      -1.27562640
O        6.20876669       9.10684653      12.29863551       0.05489837       0.46993335       0.73760674
O        1.43183535       2.66998616      10.29916540       0.25040558       0.17296204       2.25394093
O        5.71970972       6.61452500       7.04966015      -2.28849600      -0.21075078      -1.52688423
O       11.33936274       6.97903772       5.66188005       0.88152501       0.54904064      -0.43339220
O       11.89686057       5.90570402       1.83625828      -0.92367045       0.25559034      -0.39488685
O        8.43781395       6.68879977       3.39982335      -1.29976963       1.57783145       0.57690183
O        0.73379066       4.52276741       6.02377041       0.27937589      -0.19559024       0.93407257
O       10.17335700       0.81828084      12.32200249      -0.52335045       0.21022639       0.19164785
O        9.01234147       0.65969461       7.04212880      -0.11760101      -0.47871979       0.41084167
O       10.97450711      11.23695585       6.04439065      -0.84196952       0.19733950       0.45319392
O        6.32750080       7.06902339      10.19150106      -0.33103001      -1.94179468      -0.54758665
O        7.26547409       1.83549451       2.39034933       1.26235283       0.47861835      -0.14655152
O        3.53333664       7.77537604       3.78204938      -0.11792706       0.33657248       0.82802631
O        7.56163679       8.69722351       6.76737157      -0.93730108      -0.92676814      -0.59426178
O       10.26141468       9.41255260      10.09501385      -0.09738533       0.54488757      -1.61415888
O        3.15230003      11.13269807       7.59148935       0.47527543      -1.06461220       0.49043500
O        6.26277423      11.88169542       4.70564571      -1.41588345      -1.09079750       0.86744606
O        4.35151579      10.95323744       2.66039937      -0.44365416       0.06809386      -0.74277547
O        8.67147810       6.17493721      11.32785655      -0.52098539       0.89086267      -0.28408129
O        4.38138483       5.18279862      10.33929749      -0.34418825      -1.38568736       0.17183729
O        3.12319268       3.33301406       7.53628180       1.12229643       0.11518574       0.63332133
O        3.22706730       6.31454250       7.94209786      -0.07888165      -0.46280524      -1.48134624
O        9.94224101       4.23170366       2.55229380      -1.25706864      -0.90825243      -0.30886210
O       10.58270111       2.95581142       6.27626584      -0.43826016      -1.38493696       1.07987201
O        2.70718130       3.34846342       2.36169435       0.53304544       0.36922718      -1.11080239
O       11.03031150       4.00414143      10.78209907      -1.32228169      -0.17978370       0.72231342
O        4.50495267       1.87227169       0.93417818       0.86876944       0.78486543       0.31506558
192
Lattice="12.429 0.0 0.0 0.0 12.429 0.0 0.0 0.0 12.429" Properties=species:S:1:pos:R:3:forces:R:3 energy=-934.7746518862499 pbc="T T T"
H        5.87139978       0.94124925       2.11899134       0.22082928       1.42624528      -0.43390254
H       10.55802062       7.29325466       0.16897954      -0.62387800      -0.57979517       1.07482291
H        0.60178203      12.00434513       3.97532927       0.19935644      -0.58064358       1.18495321
H        0.65194858       7.51524293       2.05050101      -1.41005203      -1.71995948       0.26584002
H        5.87708342      10.73651155       7.87046992       0.12671766      -0.51539710      -0.01553229
H        8.40710255       5.25061302       5.38982944      -0.47622736      -1.25902469      -0.15747657
H       10.86369535      10.80888271       0.60137535       0.36371057      -0.06282232       0.63261104
H        9.79475951       3.35276489       2.50741014       0.30839067       0.20460827       0.08106127
H        9.52258885       5.37203157       1.19923600       0.22737904       0.69209617       0.34294908
H       11.64005289       5.55930335       8.01261825      -0.49122616      -0.32669759       0.46398360
H        3.13471143       8.34780154       6.73516632      -0.80884359      -1.53844175      -0.90631382
H        7.22197367       9.41847156       8.76276731       0.06109653      -0.23531243       0.12335955
H       10.85531720       7.55155500       2.54114868       1.50765021      -1.24034787      -0.55103284
H        9.51555653       7.17976695       6.09532344       0.12566094      -0.01284581      -0.63536132
H        4.70530044       8.20759692       2.53910243       1.05199936      -1.17706025       0.15524780
H        9.95153845       8.71616951       8.36193601      -0.19000283       0.75311088      -0.58757692
H        0.10464800       0.24585194      10.69257483      -0.80755967       0.49644618       0.32617806
H        2.50473248       3.21163472      10.66835287      -0.67212003       0.71982844       0.57679631
H        3.00632265       0.66518075       9.88690716      -0.74015502      -0.01919725       0.99203294
H        2.28997624       2.71263331       4.01193090      -0.05183053      -0.44736231      -0.88838716
H        1.32344998       0.27154146       0.34843520      -1.10605194       1.22103658      -1.25710483
H        7.65538452      12.29920406       4.81514482       0.44088780      -0.28132957      -0.18849301
H        7.48412728       6.56674849       7.58981183       0.45713760      -0.03613006      -0.07677549
H       10.04459075      12.31519619       4.01126108       0.30300160      -0.73946437       0.29436255
H        1.04129537       8.00015040       8.00466838      -0.24791720       0.39889358       0.05036848
H        3.75928105      10.80095562       3.96083234      -0.48741703       0.94262617       0.07614539
H        7.01700971       6.13401779       3.75065755       0.39300248      -0.01700796       0.50763568
H        7.15666147      10.93826259       2.67526401      -1.65667706       0.89025789      -0.63309965
H        1.63602553      11.76557714       8.72691186      -0.34951651      -0.48229656       0.55337401
H        3.31541018       0.87357155       7.84165911      -0.19835062      -0.40864107       0.02909284
H        9.92424436       1.26520138       5.76292947      -0.47951474       0.87882447       0.00248755
H        1.68322283      11.59096783       6.50009099       0.11540451       0.03374117       0.15781184
H        4.82369222      12.33353912       2.56496577       0.27807643      -0.06794935       0.02640783
H       11.56498389       8.46006123      12.14602709      -0.38739197      -0.38313309       0.27034762
H       12.20234851      11.54756594       2.69780033      -0.19532440      -0.45613071       0.04763536
H        0.36482595       5.95490315       2.38723202       0.44269361      -0.50902023       0.79842536
H        5.86049628      11.70595327       6.66677259       0.12346988       0.05010768       1.02783732
H        7.44693806       3.91338963       5.62197928      -1.46591326      -0.42299135       1.17907833
H       11.09786091       9.65003658       1.56178172      -0.20007290      -0.42327928       0.67265466
H        9.01702432       4.21436533       3.46656363      -0.04753033       0.12381677       0.42602670
H        8.43508293       6.22653547       0.55298534      -0.05051289       0.12650047      -0.08584598
H        0.70391716       5.52132453       7.47648090      -0.93027023       0.07135053       0.00248504
H        2.75016750       6.72662479       6.30616722      -0.03606227       2.06522612       0.42657372
H        6.47378276       8.24944222       7.99364889      -0.54816265       1.69941146       1.11352408
H        9.41622688       7.95331373       2.24431353       0.00467036      -0.31090862       0.17958206
H        9.66269212       7.15038609       4.47119971      -0.37229552       0.28472937       0.50677516
H        4.02570693       9.13807129       1.60170755      -0.28317625       0.59676370      -0.11268523
H       10.08721615       7.37702351       8.98693795      -0.44790208      -0.40530905      -1.33665201
H       11.30799140       0.79602978       9.93154813      -0.12620721       0.11170197       0.87353750
H        1.30902648       2.41879766      10.35920224      -0.24264358       1.82973013       0.99486056
H        3.12150572       0.61361561      11.39054591       1.60450488      -0.89188472       1.99015707
H        1.10993260       3.58220013       4.61583835       0.87508414       0.07797652      -0.14560832
H        1.60609323      12.19842510       1.69022263      -0.02690079      -0.42603802       0.46549338
H        6.37256250       0.23526939       4.05179044      -1.48960508      -0.71448075      -3.07603699
H        6.26183342       5.93473736       8.27241018       0.16828033       0.82491365      -0.68596850
H       10.96297237       0.78081371       3.19534568       1.22133135      -0.03190444      -0.05819514
H       12.04304668       7.83215259       8.36547113      -2.34116653      -1.92877776      -0.32014985
H        2.60763953      11.80791171       4.40131220       0.72860548      -0.47443450      -0.34814782
H        6.31033094       6.55058036       2.52135603      -0.02424322       0.22667133      -0.99103117
H        8.62528295      11.20202562       2.88843212       0.49793241       0.31060934      -0.11294468
H        1.35846735      10.29928788       9.15085084      -0.88927018       1.36198692       0.08619364
H        4.35228227      12.19092322       8.03889745      -0.66228946      -0.45218329       0.30551303
H        9.09575986       2.66237096       5.91674532       0.40092451      -0.54330341      -0.15140359
H        0.50446517      10.84787999       5.85138400      -1.05638772      -1.14781328       0.23122774
H        4.69479067       3.79657098      11.95346121      -0.00567121       0.17013720      -0.34278597
H        8.81692041       1.88928468       0.48652916       0.76011355       0.33678510       0.34698655
H       10.52268062      10.27748404       5.06256202       1.15347152      -2.76260082      -0.30381113
H        5.59258442       9.20130997       5.70242264       0.24217673       0.20612212      -0.29377412
H        3.13448684       4.71480270       1.87098206       0.02456099       0.95401739       0.34603639
H        5.63711129       2.80125165       9.81495303      -0.53884576       0.48259032       0.06720810
H        4.51065409       5.52251394       5.37544501       0.38355154       0.32410584      -0.04664488
H        6.40418032      12.20258940      11.32209036       0.87754960       0.71355858      -0.71023979
H        7.77065723       9.80950985       4.50028201      -0.63002918      -0.27666749       1.22400248
H        4.42427540       7.11540377      10.63025725      -0.77387216       0.10338956       0.77329072
H        9.39320007      11.93237749       0.05982921      -0.04089027      -0.62395029      -1.13299754
H        0.22366277       8.48300533       5.37064347       0.40969106      -0.38591576       0.04123236
H        9.57237049       4.78711892       9.33904427      -0.05758324       0.06987141       0.03792904
H        8.14090453       3.13654318      10.02082920      -0.14108517      -0.54977470       0.15284180
H        1.86805929       7.80841248      10.69575089      -0.48645647      -0.70564163       2.70470580
H       12.15870340       4.98820753       5.38077475      -0.60131095       0.36274927       0.88479596
H       10.03928486      11.45103818       8.42382851      -0.63953650       1.15804197       0.46770776
H        8.66133015       9.66250355      11.03802247      -0.34096703       0.01187415      -0.06888052
H        2.85957743       2.61725185       6.34171072       0.50871867      -0.03087685      -0.28657683
H        4.89892999      10.55110856      11.76519508       0.42471585       1.20327076      -2.21212283
H        4.21916531       8.75101845       9.07257790       1.20325886       0.81771965      -0.36053072
H        7.18963201       8.94099034       0.23004146      -0.48934620       0.10434646      -0.09787249
H        9.55144717       1.25507065       7.99180617      -0.08812277      -0.42472156       1.61317984
H        6.57319372       2.38231848       7.32101867      -0.48656940       0.67556747      -1.38968406
H        1.25413055       9.70590139       2.03291922       1.06029022      -0.52742628       0.48767454
H        0.76637434       4.34794717      11.94390470      -1.54835828       0.33027860       1.94050380
H        2.08045453       4.52394443       9.13628148       0.64288303       0.47304574      -0.97957028
H        5.92816545       3.99401072       3.24143696      -1.17088609      -0.56478534       0.21430082
H        2.53667440      10.64791050      12.25614512       0.67870715      -1.11058366       0.62903915
H        3.11589458       1.30530397       2.12868756       0.17414031       0.09118648       0.08243014
H       11.29088275       3.54504129      12.23289756       0.50873704       0.90963473       0.47918272
H        6.08785515       6.00434951      11.86481348       1.76151991      -0.75682317       1.50397632
H        0.67290652       7.26985109      11.58397969       0.69270907       0.14490123       0.39559654
H       11.39986738       4.71549060       4.01378938      -0.54025080      -0.17298626       0.05824107
H        8.03970488       8.61147515       5.37280620       0.22776739      -0.62488440       0.24351016
H        3.73381631       6.93221521      12.07785417      -0.65443384       0.03315440      -0.09379406
H        9.94235715      11.26599008      11.06180268      -0.46205277       0.49312657       1.89419508
H       11.93861325       8.93304214       6.64946452       0.22761085      -0.46165617       2.40442022
H       10.70224111       5.41079353      10.04161715       0.37323044       0.17778844       0.39642478
H        9.40259964       3.42395276      11.12569917      -0.41807170      -0.27440539      -0.68809589
H        8.80917143       0.88566076       9.41831992       0.84594391       0.00053405      -0.64565657
H        6.57117064       1.70563336       5.89228026       0.10934241       0.96959558       0.19905034
H       11.33055848      10.70595785       8.40904212       1.17119372      -0.05374459       0.22782264
H        9.42244006       8.41649345      10.90324801       0.96956397      -0.85155011       0.26877246
H        4.40498584       2.41481263       6.75171786       1.36340156       0.14122477      -0.95014658
H        5.59207493      10.54356925      10.27354654      -0.76712648       0.54080022       1.08375763
H        3.21571637       7.66333327       8.66375144       0.12008662       0.94171446       0.96407320
H        5.72017203       8.79408099      12.20671467      -0.05402755      -0.61204885      -0.28492874
H       10.93975650       2.13414893      11.72953658       0.30732179      -0.38796189      -0.27667226
H        7.40731554       5.24099869      11.54203805       1.13885179      -1.04252513      -1.45932170
H        2.35844935       8.70314533       2.79648663       1.66131207       0.68495161      -0.20057103
H        0.19442199       5.47394285       0.50912051      -0.01648183       1.95583706       0.50434238
H        3.05411655       4.35708055       7.90549059      -0.10966787      -0.29317446       0.04781507
H        5.60625573       3.00235812       4.38473151      -0.50057794       0.15570807      -0.76448643
H        2.37881476       9.04521711      12.41051461       1.13912271       1.30091053      -0.21328434
H        3.84719997       2.67062025       2.60250684      -0.54637326      -0.90587110      -0.54492707
H        3.34734057       4.57438612       5.12246412      -0.48161280       0.86384701      -0.21169122
H        7.54139404       0.77824554      11.81162962       0.06522887       0.00766479       0.66637453
H        3.66277244       2.73697656      12.25089827       0.47206078       0.08514253      -0.75773491
H        9.23910481       0.95452651       1.71260794       0.69745393       0.12855579       0.77844933
H        9.61436195      11.15492839       5.85065025       0.72482009      -0.07539712      -0.47894023
H        4.49274630       8.83972635       4.69857961      -0.03390008      -0.17989289      -0.20658664
H        3.51435255       5.89849877       2.81978413       0.26218848      -0.22491574       1.17436327
H        6.47995895       1.61609246       9.71940586       0.40442638      -0.78939132       0.22443510
O        5.77095595       0.02612126       2.32405978      -0.65335982      -1.37856058       0.32747738
O       11.17220092       7.59310706      11.92628179       0.95124485       1.09160233      -1.85454703
O        0.26418278      12.26736646       3.13064207       0.09544698       1.20028539      -1.44479035
O       12.36258898       6.72058129       2.02005001       1.12090203       2.47019654      -0.75158308
O        5.83641440      11.69052262       7.66667489       0.10129103       0.65786837      -1.42818802
O        8.16274811       4.29211204       5.13692175       2.06579468       1.89544221      -0.99000844
O       11.37538145      10.56142738       1.43342137       0.21042386       0.06817601      -0.74125285
O        9.82872514       4.23588326       2.92610401      -0.10640014      -0.61621324      -0.60633567
O        9.33060997       6.30866818       0.95654155      -0.40697009      -0.65791796      -0.34113017
O       12.18045200       5.68338682       7.22411771       1.62702604      -0.00588376      -0.69704486
O        2.40620385       7.64845266       6.64245777       0.89765987      -0.32911609       0.20375911
O        6.32587589       9.16895740       8.47733344       0.25466974      -1.46140471      -0.69554625
O       10.09663540       7.96111269       2.93444626      -1.22122068       1.54459408       0.91853536
O        9.03323786       7.02215092       5.24600618       0.22856271      -0.40074857       0.41355668
O        4.12183465       8.94672071       2.55491575      -0.49374353       0.62811442       0.09125284
O        9.97648741       7.78804673       8.08375608       0.01249551       0.05237581       1.23200643
O       11.68002941       0.74697823      10.85678380       1.04163023      -0.83270727      -1.22242230
O        1.51376954       3.36826275      10.69391316       0.73624108      -1.87191359      -1.60919885
O        2.51985932       0.90354992      10.75367422      -0.76224040       0.24592011      -3.18156097
O        2.06414148       3.28065803       4.74644004      -0.82725070       0.25810553       0.99154776
O        1.91295954      12.10787831       0.76743250       0.91562408      -0.46840225       0.97229814
O        6.83697634       0.35988421       4.83341758       0.93240459       0.93872525       3.63363205
O        6.51748091       6.61622954       7.59214613      -0.33747585      -0.99590084       0.57829406
O       10.04403883       0.55801761       3.30848289      -1.52117159       1.10276396      -0.67698031
O        0.28990595       8.44913081       8.47232497       2.85801614       1.39502344       0.23184314
O        3.39733447      11.71512572       3.81051025       0.02413439      -0.35157260       0.09323858
O        6.14016298       6.11109142       3.35198748      -0.14176275      -0.19132832       0.36965079
O        7.96935183      10.50204093       2.85047053       1.24022957      -1.24295773       0.46711826
O        0.92706429      11.21337274       9.15547717       1.03147732      -0.96257423      -0.48750648
O        3.36677671      12.38295434       8.23106367       0.32916979       1.02771801      -0.40361974
O        9.23646981       1.75180584       6.27362793       0.39778312      -0.45480717       0.25437264
O        1.21427247      11.44940569       5.66581741       1.02870801       1.10009527      -0.23416776
O        3.56545693       5.54815983       5.18335526       0.01539783      -0.85120573       0.14338182
O        7.16234257       0.40159297      11.01672459      -0.92408276      -0.69395579      -0.37830693
O        4.18360412       3.10931860      11.48222738      -0.08120966      -0.08863366       1.37369064
O        8.54065022       1.19015071       1.09305522      -1.29301422      -0.28973962      -0.94659605
O       10.26538702      11.16493908       5.10428281      -1.95181890       2.64894241       1.13080956
O        4.66135628       9.39384754       5.46789837      -0.20702369       0.01149657       0.62782521
O        3.22457049       5.69649752       1.93693255      -0.37959603      -0.73935546      -1.46309778
O        6.32386153       2.44607188       9.23878258       0.20805946       0.15936467      -0.22933861
O        1.63112784       7.52056331      11.68539275      -0.19151645       0.57802530      -3.12345427
O       12.24999545       4.91367783       4.42828728       1.03503629      -0.36567410      -0.76588244
O        7.53688968       9.43835259       5.42844546       0.31015112       0.92380279      -1.40867998
O        4.51517462       6.76056011      11.54568299       1.55540669      -0.27748634      -0.62785178
O        9.62598711      11.08170508      12.00803380       0.21344386       0.56108733      -1.14451694
O       11.93653879       9.01421568       5.72428715      -0.58257596       0.85827128      -2.60610693
O       10.24022326       5.51065319       9.20054444       0.06250564      -0.54378052       0.29632497
O        8.70686971       3.77676955      10.46418750      -0.04421402       0.99163701       0.23774036
O        9.69044857       0.88680686       8.95285430      -1.06114690       0.41855088      -1.12619136
O        6.39526630       2.60747455       6.33786685       0.06366945      -1.65999097       1.25856182
O       10.48256359      10.74255090       7.97004501      -0.39370209      -1.14165906      -0.51588684
O        8.62100753       8.80817191      10.56235368      -0.73434945       0.81135931       0.04837825
O        3.51246202       2.45554219       7.06249579      -1.88710635       0.18579345       1.07303782
O        5.11008536      11.13178088      10.92689656       0.19183429      -1.54613748       1.03149925
O        3.42559325       8.34215166       9.38862998      -1.25685746      -1.88944886      -0.83884252
O        6.27196598       9.19870237       0.45556050       0.53748742       0.03036718       0.42737374
O       10.53610429       2.95453589      12.05909097      -0.89815931      -0.57477259       0.24698950
O        6.95738293       5.56434372      12.30159557      -3.21636396       1.61514173      -0.04843801
O        1.46926491       8.88046490       2.52203218      -3.17524613      -0.05239709      -0.39473219
O        0.08273944       4.56722286       0.29329401       1.64980514      -2.52000708      -2.57474566
O        2.53127023       5.02441146       8.38273892      -0.68092130      -0.19284697       0.97274103
O        5.24335229       3.30693072       3.51237930       1.57255293       0.41262672       0.54139381
O        3.06650265       9.80935404       0.00211280      -1.47168397      -0.66980040      -0.25084316
O        3.07724022       2.27495917       2.07970605       0.59691327       0.81609614       0.33157641
192
Lattice="12.429 0.0 0.0 0.0 12.429 0.0 0.0 0.0 12.429" Properties=species:S:1:pos:R:3:forces:R:3 energy=-937.5103088098159 pbc="T T T"
H        6.42834961      10.58360962       8.78563354      -0.05743296      -0.38717850      -0.27476897
H        5.13108223       2.21892387      12.12892952       0.55388705       0.31639703       1.56759970
H        0.55096071       1.96994174       1.56402907       0.22533101       0.69367587       0.66980582
H       10.28968245       8.87880557       0.56569839      -1.11602796      -0.03506055      -0.17767664
H        2.33521494      12.29466376       5.14751404      -0.76561528       0.30773354       0.81133507
H        9.94324566       5.93714334       5.87839746      -0.10582587       0.61927828       0.07159042
H       12.25205323       9.51178395      11.77085579      -0.52099229      -0.04976729       0.55170434
H       11.49203497       3.22771403       2.50684879       0.60272606      -0.31976456       0.06725703
H        2.26103307       7.19877347       3.90543841       0.08869873      -0.11332477      -0.28998442
H        0.21534125      11.06525357       2.14266598       0.00541770      -0.45586553      -0.02070630
H        2.50864481      10.50162215       8.15774158      -0.44247153      -0.11300192       1.19407130
H        8.91701739       9.48096908       2.42780745       0.93988269       0.96378840       1.64095237
H        7.81011081       6.54351610      11.33164666       0.42105827      -0.23894434       0.78290688
H        6.34989321       3.77922936       0.52685714      -0.04316861      -0.01460455       0.88898714
H        3.01813645       8.23744469      11.08293648      -0.84499563       0.34648489       0.13349080
H        6.36141406       6.43592506       5.02536389      -2.30234088      -0.38377279       0.60835628
H        7.95840389       3.45615128      10.66680820       0.11081849       1.31595984      -1.75984073
H        7.89078072       4.55454306       7.68137741      -0.67625316      -0.17101352       0.51513617
H        1.75144346       0.53123028      11.73436017       0.50251535      -0.18619524       0.25730454
H        9.91964345       2.00613533       8.41908350       0.30048808      -0.20687201       0.40159832
H        1.16501756      10.18670773       5.99984362      -0.71042417      -0.32101570      -0.53574407
H        8.61320653      12.34464276       3.04679302      -0.96838850       0.00606679       0.87606457
H        5.66951997       6.48311537       1.36307646      -0.27631127       1.50778543      -0.63355019
H        3.74350645       2.80873467       3.59903224      -0.64501267       0.06915976      -0.24137490
H       11.72585183       9.59509530       7.60842257       0.09897832      -0.24569327      -0.36287263
H        2.51407999      11.84326646       1.12337868      -0.13995805       0.12499024       0.52380839
H        1.81902195       5.22606123      12.27624593       0.02159308       0.38420507       0.28922650
H        6.97563904       0.57629176      11.85658339       0.49559885      -0.93591134      -0.09973038
H        2.71911870      10.55012215      10.68640815       0.64807623       0.21426504       0.19021349
H        0.63243408       1.92267291       9.14926589       0.17118011      -0.22053334      -0.94517660
H        7.44390805       1.48656849       6.43014131      -0.09444779       0.24987223      -1.94319684
H        8.13893431       0.29197784       9.05215789      -0.13406939      -0.25088425       0.10096558
H        5.01332860      10.99693660       8.55497026       0.02968567      -0.21051918      -0.19989120
H        4.21381884       1.09068952      11.56573039       0.55797884       1.45250470      -0.05993975
H        0.69513337       1.56839346       2.99242715       0.07215663       0.54197991       0.54508703
H       11.15591649       7.71509598       1.22382816       0.17981266       1.34012716      -0.65923345
H        3.44517910      11.35971596       4.61976076       0.55012698      -0.72375106      -0.18609146
H       10.25201106       4.46359453       5.82617271      -0.61355523       0.26277517      -0.29391996
H       11.92566283      10.89251316      11.05562413       0.00016445      -0.53060252       0.58529889
H       10.59938588       3.85269715       3.64302612      -0.18888943      -0.98279449      -1.43309197
H        1.47819553       6.45041290       5.00187763      -0.03012755      -0.35145531       0.17515937
H       11.51345444       9.90006179       2.11862305       0.88860555       0.82917413       0.49746377
H        3.51749719      10.06749532       7.13633761      -0.21731583      -0.08675129      -0.33791124
H        8.16023009       8.23041188       2.05690942       0.54246208       1.33567574      -0.60067953
H        7.96275977       7.44611703       0.10056322       0.09598522      -0.26705495       0.00179192
H        6.33222666       3.55587324       2.10496986      -0.36580885       0.18072327      -0.97509629
H        3.13953218       6.73313804      11.87926905       0.15712320       2.15951407      -1.25631579
H        5.23770970       5.39885703       5.61536344       0.19133127      -0.63945742       0.06059304
H        7.81186568       2.00018439      11.00288711       0.32005621       0.47029114      -0.06928582
H        6.71609675       4.78532156       8.82501646       0.69397729      -0.44173297      -1.24929104
H        2.82083223       0.06254070      10.72115860      -0.01799074       0.10067281      -0.23931933
H       10.87562857       3.00298000       9.22126263       0.33409120      -0.60426066       0.21958651
H        0.27284978      10.20008484       4.64163578       0.26972365       0.27163721      -0.66968576
H        7.08380674      12.15705195       3.06276235      -0.61355000      -0.00184939      -0.64732908
H        4.77380660       7.29399167       0.34525339       0.46367702       0.27175015       0.20792259
H        3.94334107       1.25507800       4.11445276      -0.19451250       1.05043289      -0.19543004
H       11.55831927      10.02828210       9.06943713       0.14721045       0.36508626      -0.89413825
H        2.13749018      12.03220680       2.67633149       0.63237568      -0.18243585       0.29799514
H        2.77151776       5.15270330       1.10046001       0.40084609      -0.60266290       0.62981886
H        6.81189260      11.51424215      11.70553784       0.24164849       0.05550242      -0.14405131
H        1.53476172       9.79548365      10.33795161       0.23272308      -0.33570668      -0.34576473
H        0.33477656       2.25252655      10.59921741      -0.14939010       0.41353937      -0.31672752
H        7.26025695       1.29354534       4.82104669       0.07067776      -1.46409622      -0.60623113
H        8.84806299      11.30449468       9.00001514      -0.38652734      -0.37741140       0.12644299
H        4.31601984       0.89041056       8.85420288       0.07853252      -0.20841465       0.15889348
H        6.58054320       2.49546660       8.64792004       0.25981890      -0.04746599       0.01064618
H       10.90610694       0.18234793       2.47637625       1.15043543      -0.65915921       0.82986083
H        6.88531842       9.80112354       1.67357772       0.76964435       0.22228199      -0.03684889
H        0.89254667       4.36253428       9.94498915       0.09859579       0.80627938       0.20835437
H        5.26018201       7.33652913       7.38548562      -0.76760365       0.01388013       0.43464014
H        9.70372674      10.61640094       4.64884088      -0.51514217      -1.08706807      -0.19202165
H        5.99257456       3.42770941       6.37611135       0.42838410      -0.17003848       0.14074693
H        8.42907490       7.22418480       4.38561641       0.01841892       0.08726041       0.21152618
H        1.33936082       6.08054309       7.32243463      -0.00478413      -0.03231585      -0.25908462
H        9.97599423      11.96566761      10.94685742      -0.02211953       0.41872952       0.22823364
H        9.64821866      11.93022106       6.91649612      -0.20107429       0.19071181      -0.12071384
H        0.05852568       1.88110952       5.53514507      -0.50200072       0.94851717      -0.09706747
H        5.83809914       6.62302725       9.39799860       0.05653330      -0.71696480       0.44649951
H       11.61629543       8.53511717       5.43110468       0.47955174      -0.07061562      -0.03138663
H        0.30869645       6.04183397       1.57603734      -1.85627324       0.29944182       0.23183286
H        7.38796107       7.95848841       6.79376217      -0.61432485       1.31800358      -0.94318060
H        8.88012191       9.08478073      10.23877502       0.04212715      -0.14837969      -0.09785465
H        1.89159447       1.99304838       7.61389185       0.43524502       0.42140146      -0.13829965
H        7.73769668       9.58537916       4.88764385       0.56194063       0.20782197      -0.23383630
H        5.49316842       9.98899930       4.83170911      -0.57311433      -0.51685294      -0.83408828
H        6.14663140       9.53333826      12.15883315      -0.53448046      -0.68203527      -2.04814777
H        8.65135142       3.39245658       2.65693709      -0.64158694       0.72652866       0.96208530
H        4.43773767       6.89516763       4.06390012       0.43258521       0.00824899       0.14386197
H        3.02992695       7.20902063       8.60502891       0.40588597      -0.64495309      -0.25398014
H       10.11197969       3.58417821      12.29416820       1.13399234       0.65058708      -0.04571130
H       11.55422687       3.14265270       7.02784019      -0.45226344       0.00661727       0.07442852
H        1.95968974       3.77123317       2.74587610      -0.56192602      -0.72306181      -0.14581018
H       11.84538726       0.95633911      12.06634143       0.04676119       0.55915349       0.13548627
H        5.38921733      11.99882964       1.59958114       0.73049998       2.65583879      -0.05371593
H        4.06700229       3.30578112      10.66842564      -0.00252547       1.13599104      -0.53682963
H        3.67378526       3.65962538       7.14590755       0.53840459      -0.28264473      -0.84770308
H       11.65394191       7.32915363       4.48883769       0.68223278      -0.21202063      -0.43904292
H       11.44884502       5.90753912       2.58053185       0.74075495       0.31153046      -2.09739468
H        8.14074643       5.81325442       3.88456942      -0.18836758       0.48333672      -0.36163418
H        1.69578190       4.65309390       6.93879453       0.74395321      -0.24653451       0.25135039
H        9.90256373      12.19647821       0.04565265      -0.30794514       0.15204672       0.51406699
H       10.87363919      11.37287160       6.27011284       0.04720946       0.01249433       0.00871804
H       11.96132597       0.56936573       4.99882849      -1.29014761      -0.72958044      -0.08166150
H        5.16376216       5.42713416      10.09193797      -0.11159009      -0.35945250       0.17885302
H        8.08290807       3.81346469       4.08770415       0.23274285      -0.70574806       0.45970581
H        4.23684754       7.40903426       2.55725494       0.46388969      -0.03439717      -0.44199321
H        7.93231171       7.71009516       8.21385001       0.04570895       0.04301517      -0.67309148
H        7.35952975       9.31453438      10.08435259       0.72083952      -0.41707107      -0.12702259
H        0.90731717       1.03509219       6.95885174      -0.95614066      -0.61778184      -1.62220709
H        7.11215261      10.19243019       6.15803094      -0.05525296      -0.50865983      -0.38853486
H        4.35946243       9.16955125       4.01809481       0.07062129      -0.80862785       0.09147083
H        5.32696814       8.70454904      10.99558745       1.03667303       0.82117769       0.53177384
H        3.21814256       4.64310566      10.68799007      -0.39713596       0.02977031      -0.33867887
H        3.21779966       3.50211258       8.54655038      -0.07961849       0.43319853       1.22202669
H        1.90168363       8.09279706       8.77626667      -0.61625303       0.14234326      -0.07585333
H       11.14229205       4.71780494       0.39452003      -0.32555018      -1.12043308      -0.74350118
H        0.01222592       4.04218914       6.21224807       1.44015027       1.84992720       0.16519270
H        2.57543595       4.88283557       3.56413342       0.12658811      -0.01540731      -0.11013108
H       12.08450322       2.50179910      12.26673104      -1.25887029       1.50994487       0.17244912
H        5.01438620       0.96825031       2.30363419      -0.02716015       0.39992667       0.09263807
H        9.91787176       8.98403712       4.59131016      -0.11939203       0.93008290      -0.38890973
H        4.94835635       2.90543655       5.27723754       0.24266022       0.38720375       0.55311666
H        3.23366926       0.05272421       8.16895664      -0.20267911       0.15056855       0.60558077
H        5.99618469       1.68153816       9.88461962       0.75659120      -0.11496735      -1.46941345
H       10.19890061       1.64221497       2.46396101       0.51838517      -0.68818137       0.12145633
H        5.54389083      10.03134953       2.25626706      -1.74137808      -0.81766798       1.96254924
H        1.21610574       5.93729607       9.87712591       0.43672229       2.08984413      -2.07228137
H        4.95291532       8.51223276       8.34368561       0.21847571       0.55191744       0.06035865
O        5.65638964      10.31059855       8.25032204      -0.07405202       0.85955128       0.42530551
O        4.71931293       1.93731695      11.32147681      -0.95704872      -1.81743533      -0.92264365
O        0.61467773       2.39823483       2.47855886       0.03938785      -1.15114359      -1.38816249
O       11.16203740       8.68826242       0.89118587       1.19509336      -1.24626720       0.63869860
O        2.82485429      12.06431014       4.36810139       0.32361158       0.42168096      -0.73999828
O        9.57344358       5.12598252       5.50913392       0.74125558      -0.98691266       0.17821159
O       12.18039075       9.95512074      10.91286888       0.53946565       0.31254024      -0.91958886
O       10.56104900       3.36807358       2.75187190      -0.48325605       1.33571342       1.72717478
O        1.50811542       6.57720980       4.03550804      -0.29977940       0.08379345      -0.03781947
O       11.97042526      10.60582424       2.69278256      -0.55911444      -0.15499093      -0.20118880
O        2.61454652      10.42537581       7.21392387       0.58787396       0.04260002      -1.01820948
O        8.46149480       9.12779744       1.67594952      -1.59377368      -2.62469274      -0.72607608
O        8.34497591       6.62362079      12.16845668      -0.64633430       0.41200502      -0.92996846
O        5.74441773       3.69419883       1.30387873       0.47418856       0.13348268      -0.23812213
O        3.56834353       7.47267216      11.26600444       0.81338246      -2.47810750       1.33919419
O        5.36555678       6.32700896       5.35898451       2.08787982       0.85148589      -0.53596781
O        7.93941219       2.88253478      11.40284621      -0.11957135      -1.49380822       1.75307287
O        7.07280870       4.16320176       8.07332962      -0.01378478       0.55668783       0.72787374
O        2.57721565      12.41838890      11.66913220      -0.30638328       0.25833983      -0.66275933
O       10.14571436       2.93147003       8.58587885      -0.51064201       0.68419089      -0.73458309
O        0.32113327       9.89417542       5.55509804       0.28507194       0.09633307       0.96535479
O        7.82994508      12.17385923       3.66275391       1.39749037       0.22025860      -0.39741741
O        5.40430538       7.42943049       1.09893437       0.07415208      -2.02072344       0.22078021
O        4.37848791       2.12540986       3.88964673       0.77414739      -1.52530448       0.45954185
O       11.64428401      10.39013784       8.14333904      -0.20447610      -0.21991519       1.31420778
O        1.81085605      12.06572570       1.76280214      -0.61040928       0.00712880      -0.46209037
O        2.21128958       5.74961717       0.59824267      -0.67482830       0.12688077      -1.00255858
O        7.43823325      12.21973916      11.45114351      -0.91262017       0.74799950       0.61882758
O        2.52138320       9.76751775      10.14982867      -1.26519980       0.31303206       0.23244718
O        0.31769747       2.66221882       9.69226634      -0.12668100       0.17145352       1.02743048
O        7.42250412       1.91460052       5.51912571       0.37798460       1.26089900       2.68456456
O        8.97497606      12.25168739       8.85580923       0.45717157       0.51707143      -0.28654793
O        9.37425203       9.75644871       4.24210280       0.31208098       0.01308927       0.19497003
O        5.08240455       3.51244123       6.07680383      -0.88197417       0.17327694      -0.59739590
O        3.70678228       0.14256494       9.03158949       0.31294945       0.01317135      -0.69686903
O        6.47103151       1.56988334       8.98519409      -0.94080595       0.12134660       1.39840423
O       10.22248053       0.71602074       2.10677079      -1.79601089       0.79571722      -0.95468799
O        6.07771068      10.34295300       1.56154040       0.77606575       0.61476277      -2.03506661
O        1.13787441       5.20336947      10.42818347      -0.32332774      -3.10936684       2.31695137
O        4.68813672       7.59853925       8.16300071       0.84985755      -0.49922211      -0.71129344
O       11.05891320       7.81794284       5.05680730      -0.79490545      -0.04501623       0.66963162
O       11.70883313       6.12792977       1.61429511       1.26510951      -0.71715197       1.82030648
O        7.77654600       6.73350116       3.86544739       0.20020358      -0.29509964      -0.02247386
O        1.22794622       5.42896390       6.58596914      -0.49414876       0.46246566       0.14384807
O       10.52518672      12.11305282      11.74569077       0.30861987      -0.17295698      -0.83270784
O       10.05115319      11.84158447       6.02844729       0.55179849      -0.08694150       0.13952103
O        0.33928146       1.02513371       5.18100539       1.51141230      -0.27537541      -0.23819108
O        6.04828310       5.83015169       9.96879733       0.44397926       1.00463002      -0.52803263
O        7.93589661       3.89077454       3.14108637      -0.00264512      -0.13151608      -1.15325956
O        4.00471292       7.56611771       3.48167167      -0.99684566       0.38077750       0.45210150
O        7.83766350       7.31456776       7.31428610       0.77132310      -1.31322419       1.51741617
O        8.21001065       9.18729262       9.54287729      -0.45714258       0.50134386       0.36734857
O        1.35682139       1.19186316       7.76821200       0.90078030      -0.31518553       1.61035864
O        6.98055127       9.47103253       5.49973081      -0.41672016       0.51732699       1.06945707
O        4.69455317      10.05955911       4.22100175       0.34264294       1.41042721       0.53747192
O        6.08884001       9.35385735      11.13238376      -0.96590422      -0.16779029       1.89468542
O        3.91378311       4.19582438      10.17701971       0.07865388      -1.21096145       0.70180535
O        2.86121289       3.47085748       7.65511213      -0.43906827      -0.18054859      -0.48978847
O        2.05090983       7.14718595       8.63627742      -0.17127108       0.52347896       0.04974563
O       11.05691597       3.91194966      12.21579902      -0.96101086       0.42716451       0.69900865
O       11.77268665       3.39242503       6.10491553      -1.37038860      -1.63978441      -0.01455508
O        2.82246921       4.09152086       3.02961050       0.22090938       0.98310624       0.17860672
O        0.10886237       1.66487085      12.16911196       0.91203568      -2.12817894       0.01004831
O        5.55244004       0.61002288       1.57833997      -0.44988716      -2.70186409      -0.30154067
