45
Properties=species:S:1:pos:R:3:original_dataset_forces:R:3:LES_q:R:1:LES_BEC:R:9:forces:R:3:energies:R:1 original_dataset_energy=-202.7778778076172 energy=-202.74907764846316 stress="inf inf -inf inf inf inf -inf inf inf" pbc="F F F"
O       -2.02966976      -0.63859695       3.42645478      -0.61704832      -0.31854364      -0.07776701       0.25403807       1.27071549       0.27410081      -0.38126869       0.34322897       0.48938524       0.11002884       0.02751040       0.16877421       0.76728617      -0.61921241      -0.28408156      -0.04428722      -4.76660716
O       -0.82109284      -2.01025486      -1.41699779      -1.53458643       0.89854950       0.39532167       0.32079202       0.94234675      -0.50204839      -0.00709110      -0.47430535       1.45419437       0.08200192       0.16411028      -0.24590719       0.82445484      -1.59437777       0.73631967       0.47099243      -4.56351434
O       -0.45917666       3.96989155      -0.50372016       1.00106168       1.68515778      -0.02650266       0.27513039       0.83590240       0.07575366      -0.17366289       0.47504878       1.22904601      -0.09019660      -0.17962698       0.17444058       0.38084681       1.07700574       1.63535502      -0.02498117      -4.65416150
O        1.18380952       1.27009583       0.81614876       0.10828158      -1.53850436       0.59137750       0.29563415       0.74548817       0.35734534       0.25651943       0.48043352       0.85179818       0.18063501       0.17898767       0.02391074       0.77947467       0.07826701      -1.55550935       0.69616608      -4.61321822
O        0.75718564      -3.36056328      -1.94092536       1.04103839      -1.58656216       0.93183857       0.33700803       0.86528044      -0.21468468      -0.31420688      -0.28682129       1.05890713       0.16110121      -0.54280171      -0.18800611       1.06675537       1.00398364      -1.67459325       0.95784551      -4.47225068
C       -0.95791042      -0.14366013       3.65364289       1.17281330       0.95461726       0.40532392      -0.08744577      -1.74114409      -0.29285229       1.01164113      -0.28154528      -0.47886226      -0.39769450       0.33450315      -0.41108493      -1.06905477       1.18844268       0.87266483       0.38057813      -5.28731579
C        0.00436366      -2.87677264      -1.05509567      -0.29856965       1.57430267      -2.03887820      -0.06750892      -1.12581839       0.98675072       0.27120241       0.88465301      -1.14522327      -0.08232983       0.28933696       0.33965338      -1.27038132      -0.18802047       1.63099664      -2.02509136      -5.05018766
C       -0.95243651       2.87921619      -0.52301490       2.10045242      -0.13545765      -0.56597763      -0.11167186      -1.40964354      -0.13476100       0.50140293      -0.45328423      -1.28442135      -0.01968776       0.53086462      -0.05965390      -0.44979152       1.75640879      -0.07880942      -0.44648988      -5.11823979
C        0.40932971       0.33959293       0.49670446       0.24192861       2.18795705       2.37662792      -0.09616973      -0.84658702      -0.49494591      -0.58743144      -0.53624541      -0.89999081       0.05431305      -0.54424430       0.11274631      -1.20879818       0.42387890       2.14810770       2.26110181      -5.14582786
C        0.81923836      -0.26992184      -3.19935346      -0.38604182      -0.77454305       0.48346224       0.02412589      -0.13589512       0.11249623       0.14206218      -0.08466716      -0.03617103      -0.06228480      -0.08300167       0.10871214       0.00819702      -0.44470938      -0.90299925       0.10886359      -5.27641570
C        1.57447362       0.68559963      -2.58601379       0.77504969      -0.51340657      -1.40493751      -0.05304591      -0.18512347      -0.05659078      -0.03555920       0.20613051      -0.29281547      -0.10322022      -0.02521932      -0.13478197       0.00095578       1.16963064      -0.46793460      -1.41518638      -5.48622637
C        2.79913616      -1.13926530      -2.91222835      -1.38298333      -0.84845102      -0.66064191      -0.12735619      -0.49230546      -0.14158288       0.10955698      -0.15154798      -0.37763818      -0.18850126      -0.14387962      -0.06495800      -0.17458517      -1.28194821      -0.76282087      -0.57290832      -5.61010726
N        1.54819942      -1.45402575      -3.37602568       3.51319218       3.53321147       1.09098327       0.01679666       0.33230469       0.06577830      -0.12577110       0.14791210       0.33889735      -0.04313463       0.21611689       0.13889243       0.07131557       3.31917778       3.35676936       1.13562817      -5.04379941
N       -2.10709453       2.63754249       0.10061175      -1.93736911      -2.39383125      -0.63797224       0.15916681       0.95949828       0.24375430      -0.35466973       0.03027389       0.58044247       0.04476622      -0.25882689      -0.20034482       0.43388026      -1.89013084      -2.35009957      -0.79335074      -4.40861250
N       -0.24406284       0.48399884      -0.61885458      -2.48574924      -1.64302170      -1.89331234       0.11055388       0.60487392       0.19674090       0.31521767      -0.02079083       0.82792780      -0.28834098       0.40075181      -0.00864939       0.95579625      -2.55159548      -1.42184895      -1.72119069      -4.71203266
N        0.16145664      -0.34222046       2.84258008      -1.28487968       0.59566885       0.73372132       0.13847688       0.84471842       0.01613477      -0.58870737      -0.13569901       0.40526447       0.35201343      -0.49718452       0.14202128       1.09554998      -1.32940883       0.66285870       0.79092589      -4.70616309
N        2.87930632       0.14337218      -2.51550031      -0.83074349      -0.97750336       0.94628489      -0.00029590       0.48407197       0.10386761      -0.05134314       0.11344707       0.45515610       0.22738446       0.02176239       0.08672194       0.15224514      -0.83604539      -0.97977018       0.91409841      -5.05693420
C       -0.70846009       0.80519646       4.87522221       0.05737806       0.08922213      -1.98065603       0.10737289      -0.04955599       0.03875111       0.00927465       0.04828376      -0.01379052       0.08705321       0.04104565       0.11942075      -0.01416469       0.02296187       0.14669544      -2.02170990      -4.63237644
C       -2.97699928       1.44439960      -0.32480285      -0.47940820       3.15851116       2.75367975       0.04320778      -0.41040826      -0.18211747      -0.07301744      -0.13079892      -0.35152892      -0.04321899      -0.22991274       0.09352353      -0.19262322      -0.42051051       3.10030752       2.74275394      -4.72152671
C        0.09571201      -3.13365054       0.42042410       2.93299866      -1.28925824      -1.91274095       0.07863496      -0.09307635      -0.08587062      -0.00762283      -0.05947321      -0.15515576       0.03748889       0.01330192      -0.13572275       0.27168136       2.90771887      -1.22153744      -1.91408041      -4.81008718
C        1.17254806       2.01451349      -2.06166553      -1.05280030      -0.01369607       1.85862505       0.03456737      -0.10167388       0.15610817      -0.12586422      -0.18884130      -0.17332898       0.22991835      -0.04768848      -0.07723100      -0.07708009      -0.98536486      -0.28775448       1.84589881      -4.90293116
C        0.76030165      -2.01027131       1.22191656       1.68280768      -2.90338039       0.23715530       0.09002799      -0.14686879       0.03085421      -0.01087363       0.00222751      -0.15874960      -0.03861667       0.03467286      -0.04651072      -0.04494111       1.78442881      -2.84413985       0.14378898      -4.60564132
C       -0.19822633       1.72990346      -1.33840919      -2.29980016       0.26958266      -0.67182869       0.00516616      -0.14440868      -0.16578312       0.03516606      -0.06411581      -0.44832694       0.40105851      -0.01252860       0.25082573      -0.16780568      -2.25878020       0.24239077      -0.65290995      -4.87479372
C       -0.02652347      -0.79400575       1.48327017      -1.09800446       0.91905689      -1.14111364      -0.02086969      -0.19035079       0.04725512       0.04027609       0.11788459      -0.18995619      -0.23393402      -0.01102608      -0.14431900      -0.64216438      -1.11376121       0.84192400      -1.03582017      -5.13619271
H       -0.24821401      -0.27059403      -3.31516480       0.10506763      -0.07022842      -0.24752358      -0.06497204      -0.08891742      -0.01201487       0.08976840       0.03467854      -0.10077279      -0.11684745       0.03528256       0.04096261      -0.21227196       0.06660443      -0.09014786      -0.26140874      -4.17627461
H        3.58625650      -1.86300254      -2.78644729      -0.03193693       0.07338101      -0.09042804      -0.06655040      -0.00412676      -0.04139111      -0.04421283       0.05062373      -0.05671714      -0.04818876       0.00204868       0.01953770      -0.04628519      -0.03696828       0.09867645      -0.10176243      -4.22949925
H        1.26924467      -2.43701410      -3.32017255      -1.10194659      -0.42573977       0.38821641      -0.14679813      -0.19524768      -0.24827621      -0.01002512      -0.09127788      -0.61722248       0.03822396       0.10580853       0.32296180      -0.42743078      -1.02344357      -0.22336299       0.31455476      -3.83193941
H       -2.49709296       3.36944699       0.71331561       0.45015001      -0.71410102      -0.97415847      -0.20467916      -0.26244364       0.04622031       0.03646474       0.09511102      -0.26998207      -0.02973488       0.08008798      -0.06098601      -0.23898063       0.44687968      -0.67807793      -0.89690069      -3.62415268
H       -0.90847117      -0.29312068      -0.92075342       1.42818379       0.86353320       0.40296248      -0.15216282      -0.23420363      -0.03242633      -0.06840518      -0.03505309      -0.80938138      -0.21449703      -0.04251713      -0.21602294      -0.24099047       1.32584978       0.90493241       0.42999308      -3.74745047
H        0.89588183       0.32057446       3.00561762       0.27560088       0.08956574      -0.32564807      -0.20106348      -0.24286033      -0.04133856      -0.03978020      -0.02029997      -0.20792248      -0.00560462      -0.02478250       0.02538737      -0.19220082       0.24929303       0.03072349      -0.33919509      -3.61146686
H        3.57186651       0.37052041      -1.78849173      -0.51802677       0.30726665      -0.87572235      -0.21654773      -0.44971219      -0.05752470       0.08208073      -0.13939143      -0.25966521       0.04307948      -0.01307209      -0.03955449      -0.31914415      -0.54213001       0.32746888      -0.87410207      -3.62101810
H       -0.88991839       0.28143370       5.78731728      -0.09967649      -0.21227123       0.55192041      -0.05377712      -0.02140263       0.00836452      -0.04373015       0.00637813       0.00705941      -0.00046337      -0.02147841      -0.01504736       0.15987871      -0.08250358      -0.24115693       0.55187957      -4.02519479
H        0.30766004       1.19159842       4.80537701      -0.00258495      -0.09601727       0.39491501      -0.04628237       0.09336736       0.03281389      -0.03052295       0.04873301      -0.00207656      -0.03368592      -0.00302551       0.00628945      -0.03002054       0.00376828      -0.08152307       0.43351579      -3.95684955
H       -1.37822366       1.67648458       4.77158070       0.12312368      -0.58940995       0.13281564      -0.04676326       0.02581433      -0.05971276      -0.04483737      -0.05617845       0.06806602       0.04685933       0.00478339       0.01755351       0.03244932       0.13715984      -0.60084473       0.14165767      -3.98530073
H       -2.72082782       0.63237065       0.28247768       0.05461889      -1.26897776       0.76941317      -0.05358559       0.01733332      -0.02259167       0.04497486       0.04572258       0.03460212      -0.00813956      -0.00339488      -0.01159140      -0.03065395       0.08696807      -1.22027012       0.79931294      -3.97180091
H       -4.01006031       1.76196551      -0.14571849       0.22813725      -0.26245949       0.21464817      -0.04800043       0.12897834       0.04460481       0.01080857       0.01398008       0.02014350       0.02174853       0.00975452       0.00297695      -0.01230227       0.22777002      -0.26466769       0.21276249      -3.93920854
H       -2.96201992       1.18147373      -1.32196355       0.68142927      -0.16188645      -2.16414022      -0.05913756       0.02854670      -0.04250773       0.03085185      -0.01004014       0.00704721       0.03661250       0.08648639      -0.00864628       0.07159313       0.66456635      -0.13287941      -2.17844211      -3.95995052
H        0.75240058      -4.03555441       0.43779659      -0.36304215       0.59742606       0.61069059      -0.04794735       0.02498149      -0.07771563       0.01031669      -0.04290624       0.22481869       0.01773387       0.01364007      -0.04761645      -0.00872648      -0.36245524       0.57557683       0.61404231      -3.89503656
H       -0.84113955      -3.42721415       0.76284945      -1.66730845      -0.12007912       0.86159205      -0.06216804       0.07845355       0.04578947      -0.01731202       0.04686820       0.07104063      -0.00930186      -0.03318513      -0.03499499       0.01264886      -1.66986686      -0.11669372       0.86116209      -3.96772895
H        1.86954021       2.34670448      -1.27624989      -0.17625660       0.09696642      -0.61639577      -0.04533345       0.06631547       0.07758453       0.00394341       0.03288185       0.03985097       0.03886587       0.06637046       0.08739201      -0.03970252      -0.23509321       0.11152728      -0.60026330      -4.02676272
H        0.97832793       2.76536202      -2.81962466       0.38555562       0.05767091      -0.00820013      -0.06492271      -0.00692079       0.00316004      -0.00220005       0.03257619       0.05723914      -0.10472343      -0.00544937      -0.03401655       0.01403400       0.39043605       0.10907016       0.04772584      -4.05861153
H        1.82541847      -1.81811833       0.80981600      -1.68060958      -0.26651067       0.87868506      -0.05292926       0.11870028       0.08957431      -0.07766774       0.03375361      -0.02610368       0.01837040      -0.04485098      -0.03081640      -0.01038552      -1.67246479      -0.26176341       0.83649701      -3.99659891
H        0.79581970      -2.55722380       2.19100904       0.78154123       0.83566558      -0.34265330      -0.05069237      -0.01254026      -0.00978018       0.00613191      -0.01245251       0.05110623      -0.03145768       0.02738643      -0.04343008       0.06735643       0.71294890       0.81316424      -0.34507212      -3.86295594
H       -0.95191729       1.63209867      -2.15947056       0.68179816      -0.34686714       0.30121773      -0.05832079       0.04758689      -0.09869657       0.07820855      -0.02197231       0.02598997      -0.01020322       0.03269949      -0.04301453       0.08249242       0.59221754      -0.32960924       0.21951809      -3.93354545
H       -1.12794137      -1.05830765       1.32252383       1.50663793       0.68782091       0.35106540      -0.04199764       0.07595687      -0.03858968       0.12991402       0.00687713       0.05782001      -0.02524902       0.05038382       0.02020285      -0.12840674       1.50242437       0.72736649       0.35388936      -3.95843912
45
Properties=species:S:1:pos:R:3:original_dataset_forces:R:3:LES_q:R:1:LES_BEC:R:9:forces:R:3:energies:R:1 original_dataset_energy=-202.7807159423828 energy=-202.7072345538042 stress="inf -inf -inf -inf -inf inf -inf inf -inf" pbc="F F F"
O       -1.64674878      -1.55874753       3.10932565       1.55039787       0.32135865       1.59380209       0.22986253       1.27348073       0.29109760      -0.09078306       0.16940638       0.32284655       0.01928378       0.46808413       0.11976776       1.05284843       1.52883376       0.30283747       1.51875143      -4.73800265
O       -0.91103399      -0.77174187      -3.83107615      -0.04039462      -1.20994508      -1.04434502       0.31352931       0.73668992       0.26995416      -0.25885355       0.17596768       1.33020441       0.55240665      -0.18532336       0.22996419       0.89959491      -0.00297709      -1.10304081      -1.02772932      -4.59003530
O        2.87559271      -0.31919727       1.89341545       0.27730760      -0.69034111       1.07945311       0.30894524       1.07959267      -0.03607388       0.41290793       0.00069238       0.49049687      -0.20569083       0.48675057      -0.28290909       0.99269288       0.19900115      -0.66572660       1.16987201      -4.46947000
O        1.70307398       3.21822071      -0.25767761      -1.69551551      -0.94155854      -0.55873084       0.30730131       1.11584795       0.12026179       0.35848935       0.11021624       0.82040748       0.12794013       0.39816216       0.09414779       0.51816850      -1.75257733      -0.85406540      -0.56631756      -4.57760161
O       -1.65053761       0.81142151      -2.53839588       0.68192035       1.23219478      -0.07689225       0.36930752       1.08045158      -0.14725637      -0.51402515      -0.02875437       1.11663475       0.18083133      -0.28277915       0.47886990       0.93189170       0.67903561       1.19329037      -0.05546691      -4.55568614
C       -0.53043330      -1.38844228       3.69914913      -2.63849330      -0.35154882      -4.86457157      -0.09040026      -1.86725159      -0.45341983       0.56832493      -0.26955700      -0.19452757       0.19728032       0.07252166       0.05282000      -0.93559667      -2.58864656      -0.27291233      -4.73742858      -5.22159133
C       -0.75848520       0.34428442      -3.30778551      -1.02052665      -0.73680413       1.45427895      -0.08280924      -1.26077165      -0.01879649       0.51543039      -0.04551545      -1.40276775      -0.85201905       0.47313427      -0.79063359      -0.91191504      -1.08813534      -0.81921668       1.43403096      -5.05876684
C        1.88359237      -0.23594132       1.18005443       0.15150449      -2.78185058       3.61302257      -0.10108017      -1.15856849      -0.05893829      -0.48420910       0.09137430      -0.64876216       0.80010783      -0.63185878       0.72757892      -1.34857919       0.18128218      -3.02024732       3.62483654      -5.09511918
C        0.72142625       2.56794167      -0.73432565       4.85395956      -0.14194620       2.20349598      -0.07972342      -1.49312790       0.15769423      -0.65626528       0.04985792      -1.31050203       0.07061857      -0.65830330      -0.01598535      -0.37718555       4.94107775      -0.07315039       2.20604219      -5.22974029
C       -0.65152788      -2.29168797      -1.36055267       2.05123377      -1.93744731       2.62920904       0.00192120      -0.09236000       0.03698594      -0.07001994       0.08835417       0.05832376       0.06627032       0.24341033      -0.02169742      -0.09495669       1.96345278      -2.00052206       2.43541547      -5.29818181
C       -0.67231381      -2.43745565       0.01863861      -0.43677053       0.66097426      -2.68059826      -0.02688988      -0.23679741       0.08690260       0.06070203       0.11931652       0.04742577      -0.03201615      -0.24992721      -0.14171097      -0.25749518      -0.32059949       0.70460970      -2.52671131      -5.24411854
C       -2.62974381      -1.65275645      -0.61750054       1.48493302      -1.73468971      -1.21261954      -0.13618007      -0.06852739       0.03175087      -0.01802650      -0.01799206      -0.22606693       0.06822166       0.05466646       0.08102473      -0.53090429       1.36185985      -1.76478568      -1.11158720      -5.41821768
N       -1.87343717      -1.96874404      -1.75658488      -2.69418502       2.25435567       2.09972239       0.02697767       0.06649501      -0.00967141       0.02170356      -0.10038033       0.00763037      -0.06266653      -0.13866421      -0.08614098       0.60087458      -2.51611669       2.25320321       2.04253669      -5.09666087
N       -0.32507914       3.13855863      -1.22325552      -2.78783011      -0.33321327      -2.34547734       0.09246867       0.84005691      -0.21207611       0.36470593      -0.38859176       0.91307174      -0.19170303       0.35365072      -0.10092295       0.35334364      -2.81986924      -0.33080095      -2.36483082      -4.65156077
N        0.56672120      -1.18288362       2.98252916      -0.40905982       0.23307598      -0.67345184       0.10217499       0.94816635       0.24549853      -0.46319488       0.13223069       0.28398439      -0.15394100      -0.55785176      -0.17661616       1.09094137      -0.50782432       0.13384987      -0.59743150      -4.77363967
N        1.93128824       0.58641112       0.21223021      -2.69432378       1.89988101      -3.42443371       0.11512829       0.32376020      -0.02405336       0.05829048      -0.24971622       0.66018343      -0.59825553       0.15983755      -0.57984453       1.05920726      -2.60679154       1.67408467      -3.46674852      -4.58085229
N       -1.96088552      -2.10364771       0.47419387       1.39799845       0.65745312      -4.02946186       0.00133298       0.16548726      -0.12686632      -0.01495872      -0.07201084       0.06832573      -0.06438125       0.17335903       0.20989120       0.73879957       1.33596433       0.68850178      -4.09608948      -5.16769315
C       -0.29904532      -1.48667455       5.08734465      -0.27014756      -3.03615642       2.59899783       0.07530738      -0.09908855      -0.01822990       0.19514500       0.02972963      -0.17117909       0.03632251       0.02741842       0.10711369      -0.27943392      -0.21015159      -3.08252241       2.47529541      -4.63379803
C       -0.54948050       4.57520580      -1.14662075       0.63245368      -1.17919469       1.87631786       0.05146291      -0.14255178      -0.00269809       0.04007338       0.12173400      -0.63490153       0.08907270       0.00744803       0.01441485      -0.13389903       0.63473908      -1.22379957       1.89471589      -4.79157292
C        0.61475801       0.91496229      -3.39406872       1.07414627       2.89834499       1.27613735       0.06130742       0.18020689       0.12268828       0.01415930       0.04941773      -0.10010933       0.03923841      -0.04894786      -0.01410030       0.06535050       1.04762352       2.87884379       1.19884040      -4.72052148
C        0.54036462      -2.37322855       0.80016583       0.26991332      -0.51354688       1.07550371       0.02916674      -0.11966951       0.13174508      -0.00924220       0.01669613      -0.21920081       0.01448195       0.05060988      -0.05627251      -0.09039378       0.24596380      -0.50736612       0.96848221      -4.97005875
C        1.43771458       0.64701355      -2.10702538       0.26050717      -0.95973325      -1.36354971       0.10475713      -0.14462058      -0.05924424       0.13662923      -0.07273445      -0.02476802       0.14134863       0.12412619       0.06419459      -0.26604512       0.31972759      -0.86999443      -1.38067491      -4.59459950
C        0.62729311      -1.06201279       1.53818798       0.70835513       2.20550036      -0.41792786      -0.01074095       0.00828150       0.05675680       0.12768431       0.09031550      -0.16327437      -0.08002891       0.10272076      -0.03456937      -0.48973272       0.74796935       2.22174669      -0.38650317      -5.04875167
C        0.92188156       1.01137733      -0.76068783      -1.17226899       1.68426335       0.46881858      -0.03112981      -0.18586475       0.14785569      -0.14126910       0.18936448      -0.03900434       0.01651370      -0.01599906       0.12800886      -0.41658695      -1.22790424       1.67483612       0.49432015      -5.09688988
H        0.27963126      -2.46316624      -1.93865132      -1.44260001       0.33270076      -0.01531171      -0.06715913      -0.03607150       0.02992687      -0.00082450      -0.01899643      -0.10226746      -0.02128020      -0.00467480       0.03663134       0.00050589      -1.45958823       0.32190639       0.02183738      -4.16651911
H       -3.55412030      -1.10623038      -0.59828389      -0.13714784      -0.32397792      -0.19201100      -0.06890320      -0.02430092      -0.02393288       0.01807254       0.04259312      -0.02629498       0.02307168       0.00336948       0.01657093      -0.05377017      -0.12106094      -0.27664219      -0.23575922      -4.24880467
H       -1.88291013      -1.43270171      -2.64482617      -0.48234090       0.14964411      -0.97854871      -0.12302302      -0.26905789      -0.09367430       0.21219713      -0.10189752      -0.37616548       0.20069774       0.02290792       0.07724387      -0.72227879      -0.45958221       0.10778635      -0.81850696      -3.86546738
H       -1.04267919       2.59786749      -1.75565648       0.86346352      -0.15930872       0.77380407      -0.17997134      -0.27765208      -0.11843575      -0.07507745      -0.11467499      -0.46636164      -0.15772483      -0.06978268      -0.13400877      -0.27615329       0.89490899      -0.13018677       0.78437180      -3.70860289
H        1.35010815      -1.10844684       3.56910229       1.80576169       0.38471794      -0.32635751      -0.19430877      -0.22349205      -0.00988990      -0.04804900      -0.00242088      -0.20049116       0.01526074      -0.06514088       0.05801762      -0.28141374       1.82500157       0.37834787      -0.34848867      -3.54528858
H        2.62942338       1.22536540       0.42207223       1.70804584       1.76277077      -0.46652409      -0.16453068      -0.25752517      -0.04593272      -0.00182760       0.16407719      -0.24813338       0.08331528       0.00127198       0.06764819      -0.21017622       1.70194177       1.94547386      -0.53251313      -3.55026827
H       -2.13129973      -1.91336906       1.43087220      -0.37745851       0.35364628       1.63338196      -0.14715233      -0.28668488      -0.12185828      -0.02664848      -0.05854935      -0.21977530      -0.09794072      -0.11473419      -0.10200889      -0.89233408      -0.36902907       0.34265106       1.72311261      -3.91136755
H        0.25006223      -2.49806309       5.23685789      -1.37613535       1.24438429      -0.00332415      -0.03703735       0.02872055      -0.04909486      -0.04595836      -0.04623571       0.11950904      -0.11407520       0.01282597      -0.02577053       0.03361277      -1.40432812       1.26981917      -0.02614531      -3.85774307
H       -1.27304709      -1.45370936       5.59604168       0.78547323      -0.02667543       0.25259188      -0.04897845       0.05596672      -0.01059458      -0.05508742      -0.00289070      -0.02437339      -0.01031586      -0.03278799       0.00042406       0.01760903       0.79108703      -0.03088833       0.26113063      -3.97054680
H        0.44850338      -0.83435327       5.42725372       0.50103027       1.40442157       0.65849513      -0.05368165       0.03709192       0.07367261      -0.01999886       0.02525938       0.00024653       0.07508456       0.01831165       0.00747221       0.03491832       0.48363048       1.43255738       0.64185207      -3.92563331
H       -1.33382702       4.58886719      -0.37631610       0.33329335       1.18012261      -0.14063513      -0.05093399       0.03422948      -0.10135162      -0.03289851      -0.02126240       0.13784277      -0.03676567      -0.06846446       0.09611785      -0.00341141       0.32496774       1.19915581      -0.12774931      -3.93377031
H        0.42605889       4.98189163      -0.83491910      -0.81390381       0.30556390       0.00235492      -0.02410149      -0.00340949       0.12336476      -0.00669030       0.01415619       0.04690083      -0.01036161      -0.00636879       0.06088967      -0.01258535      -0.81272019       0.26086984      -0.01025327      -3.96100040
H       -0.90317500       4.97631931      -2.05771327      -0.24966452       0.32017252      -0.95063752      -0.05913692      -0.02415770      -0.04049997       0.02853539      -0.02288240       0.10186332      -0.05360251       0.04050061      -0.13067111       0.04274105      -0.24917771       0.31363021      -0.96487714      -4.01116689
H        1.24394393       0.37030321      -4.08467913      -0.44387648       0.57219106      -0.93348628      -0.05460582       0.05271338      -0.01003972      -0.06371831      -0.03864935      -0.01747846       0.10471177      -0.04894162      -0.00527932       0.11280896      -0.46581306       0.55742271      -0.94338807      -3.92538539
H        0.58157587       2.05357432      -3.46360755       0.12818049      -1.51255500      -0.75306070      -0.05168646       0.00127676       0.00173345       0.05319810       0.01964608       0.15882585      -0.16615494       0.01389324      -0.01525306      -0.04711475       0.15408100      -1.50677553      -0.74156342      -3.99170884
H        1.45857620      -2.64026904       0.27559423      -0.38886979       0.02818338      -0.14792810      -0.06065474       0.06895136      -0.11811580      -0.03429587      -0.04061714       0.00783788       0.02703970      -0.02450051       0.01838712       0.01324326      -0.37579037       0.05609717      -0.14863577      -4.01984215
H        0.38732159      -3.03341579       1.59011078       0.42826802      -1.71044946       1.34158242      -0.05269207      -0.01027660       0.00856721       0.00200836      -0.01226636       0.01778112      -0.00854719       0.00954714      -0.03485840       0.02888269       0.42182060      -1.71020119       1.34126455      -3.87046476
H        2.51804996       0.91159582      -2.25729036      -1.14966774       0.26124468       0.30278796      -0.04818634       0.14646515      -0.00159139       0.02592620       0.02467643      -0.00873655      -0.03081734      -0.01606132      -0.00358875       0.05262456      -1.14834010       0.23766273       0.33206065      -3.96270777
H        1.43101668      -0.41073418      -2.11260509       0.45687675      -1.43543184       0.26875570      -0.05763382       0.00079654       0.02461652      -0.05865910      -0.00393237       0.02991432       0.01610884      -0.07503264       0.01182880      -0.00344179       0.46192489      -1.38423452       0.31976215      -3.87855630
H       -0.16137612      -0.40886641       1.16240454      -0.39125046      -0.24523202       0.68025434      -0.05216604       0.02018621      -0.06581595       0.04478944      -0.04683047       0.03565612      -0.01019726       0.04701625       0.01110698       0.03823573      -0.40943470      -0.18205971       0.66059071      -3.92576007
H       -0.08678824       0.61530352      -0.54543525       0.70241731      -0.38434392      -0.27863446      -0.05972111       0.01691290       0.01707899      -0.06839173       0.05227641       0.04922875      -0.00674317      -0.06939983      -0.01729309      -0.04349182       0.67056333      -0.34004522      -0.33372234      -4.05066634
46
Properties=species:S:1:pos:R:3:original_dataset_forces:R:3:LES_q:R:1:LES_BEC:R:9:forces:R:3:energies:R:1 original_dataset_energy=-199.97042846679688 energy=-200.0137248775152 stress="inf -inf -inf -inf inf -inf -inf -inf inf" pbc="F F F"
O        3.18119216      -3.36312604       1.31394982      -0.27614072       0.91449302      -0.00831498       0.31311852       0.90291454       0.29222211       0.10006249      -0.01812078       1.32409940      -0.24756934       0.20872974      -0.16478831       0.42787643      -0.28583592       0.96963987      -0.02834780      -4.56869978
O       -2.41398191      -1.51523447       0.46278068       2.00997949      -1.82049882      -1.16688192       0.29688087       0.96744590      -0.27235265       0.06977450      -0.36680671       1.21229576       0.17615881      -0.15373297       0.27567704       0.97164308       1.98095893      -1.81156195      -1.10968008      -4.67668009
O       -1.05215192       2.13868427      -0.59193021      -0.18738027      -0.19771053       1.38842630       0.23896572       0.77117439      -0.30830681      -0.20298938      -0.12119710       0.86177997       0.01227180      -0.51324216       0.34639410       1.27644209      -0.15593125      -0.02793673       1.53052970      -4.79834000
O        1.81092358       1.18549991       1.50069535      -1.15623140      -2.02320123      -1.72701728       0.32912406       0.88645217       0.14642087       0.04761409       0.36731954       0.95766207       0.33954221       0.15737201       0.35650606       0.57279573      -1.17166498      -2.04057945      -1.75957997      -4.51303365
O       -4.02482748      -0.04289991       0.40951154       0.64429992       0.79544860       0.21441421       0.39543188       1.65775022      -0.39265521       0.12078236      -0.40094980       0.76534108       0.09673997       0.46192321      -0.05700159       0.76642954       0.49256701       0.80204255       0.24459947      -4.44089847
C        3.84809256      -2.31940961       1.28014958      -1.00149870      -3.91897869       0.19424094      -0.07769498      -1.16366937       0.04100226      -0.36569516       0.30792996      -1.93651774       0.58757626      -0.38675336       0.51259705      -0.36725761      -1.03134378      -3.97324993       0.18005946      -5.37294232
C       -2.95512462      -0.49454588       0.87569594      -1.80373240       1.05418146       2.03635979      -0.08504972      -1.68730286       0.69705159      -0.38790938       0.86671530      -1.29520445      -0.47988258      -0.51995707      -0.42715006      -0.87700203      -1.68727888       0.99134721       1.95310056      -4.93212587
C       -1.42046237       2.07110596       0.59652996      -1.09278476       0.29502550      -1.43249559      -0.10930237      -0.98927014       0.81388337       0.52036324       0.68045415      -1.07325788      -0.03711691       0.57186157      -0.18564510      -1.43206924      -1.01429660       0.27864833      -1.59285841      -5.22029195
C        1.22446859       0.18938255       0.95386410       7.11613464       2.98947597       2.24379826      -0.07680511      -1.56488239      -0.25313466      -0.05279874      -0.36610580      -0.97100658      -0.55852943      -0.02156558      -0.50057422      -0.37642782       7.07737877       2.86868617       2.19112946      -5.24374156
N       -2.35970354       2.95014811       1.07502222       1.02848852      -0.62879205       1.01432562       0.12935112       0.76060559      -0.59011199      -0.35461376      -0.65835369       0.91149638       0.22082570      -0.06098010      -0.11565426       0.47077300       1.02823830      -0.65602218       0.96453642      -4.62668810
N       -0.01669031       0.01426810       1.01440144      -7.09096050      -2.86545277      -0.40758052       0.07030162       1.20023126       0.14708896      -0.02664450      -0.00324768       0.46627471       0.19537812      -0.18434582       0.12024669       0.32842726      -7.05589509      -2.73770005      -0.42273672      -4.77064027
N        3.39146090      -1.19609094       0.76118970      -1.33717752       2.84748745      -0.74475813       0.09229828       0.98447709      -0.57953921       0.37950141      -0.39929614       1.04500008      -0.37352334       0.36407237      -0.48352071       0.48041159      -1.26725150       2.80513802      -0.71633969      -4.78330995
C        5.23572254      -2.42236638       1.77208185       3.24876761      -0.05408058       0.74055040       0.10088484      -0.03804632       0.07065299       0.04043916      -0.15566521      -0.02301472      -0.01987630       0.04375501       0.05453441      -0.14080957       3.28444043      -0.03560124       0.75219101      -4.41428860
C       -2.79393625       4.11369228       0.33788672      -0.89340407      -0.46959472      -0.78590631       0.06516062      -0.18240390       0.08474867      -0.05316293       0.14034575      -0.44704000       0.12557949      -0.01464928       0.06345182      -0.22273961      -0.94716296      -0.49153142      -0.75883831      -4.80707385
C        0.91297233      -0.20823470      -2.02185702       0.07162048       2.35711098      -0.61466259       0.08212557      -0.10304802      -0.01052247       0.02655360       0.01368853      -0.12640871      -0.01185749       0.10719399      -0.06218549      -0.10287448       0.12212891       2.28431735      -0.65257759      -4.76347045
C       -0.12239850      -1.28633356      -2.12153339      -0.95722979       0.71076763       0.72913152       0.08441068      -0.00560423      -0.07258871      -0.12243102      -0.00890031      -0.12876386      -0.04867420      -0.02807638       0.00738830      -0.20551451      -0.93943330       0.71325018       0.80809824      -4.75486948
C       -2.25327682       0.23453468       2.09773254      -1.05077064       0.24563564      -1.41849363       0.07790705      -0.04750536       0.03537865       0.14477959       0.02605210       0.06444762       0.09486234       0.04127775       0.08547544       0.15331602      -1.01539544       0.35942953      -1.31249943      -4.67720720
C        2.15579271      -0.52386123      -1.28971231       1.79932570      -2.17244720       1.63694739       0.09336386      -0.17025006       0.02949383       0.05529905      -0.08446138      -0.07419263       0.09160939      -0.00766030       0.04473487      -0.09942364       1.82349817      -2.12618072       1.63901114      -4.62095606
C       -1.42620635      -0.74514413      -2.79211569       1.18242943       1.05763817      -2.11107707       0.01685853      -0.39786930       0.19213095       0.16047925       0.23752716      -0.21908187       0.06673818       0.13046787      -0.01943247      -0.25155702       1.13278659       1.00593905      -2.09228538      -4.53151364
C       -0.99136579       0.94618708       1.56067944      -0.70717436       0.38903442      -0.21130450      -0.03596689      -0.49546030       0.17251935       0.16652260       0.10047583      -0.27576420      -0.10499434       0.22990667      -0.07889659      -0.22023453      -0.72950316       0.31091537      -0.20259201      -5.14431547
C        2.01589990      -0.91553944       0.24638787      -0.51320845      -1.06237769      -0.90420336      -0.01407376      -0.63034603       0.12306389      -0.15024349       0.16724790      -0.15827253       0.13725015      -0.18630770       0.19011237      -0.27923546      -0.47503005      -1.04457813      -0.90339403      -4.98160406
N       -2.49816751      -0.17939258      -1.91800201      -0.51378268       0.09465346      -0.50081110       0.01141904       0.44997749      -0.09862908      -0.01392346      -0.10141209       0.21397847      -0.03301063       0.08468266       0.00309972       0.39013630      -0.59260399       0.05195612      -0.59340134      -4.16757508
H       -2.82431436       2.77013588       1.96351433       0.59783983       0.02097572      -0.60096043      -0.20963015      -0.24756278       0.01530798       0.03584082       0.08081311      -0.30064784      -0.06693167      -0.02190110       0.03613990      -0.21720548       0.62004753      -0.00120687      -0.56099064      -3.55326891
H       -0.46380481      -0.94427747       0.82065332       0.84338373       1.97695863       0.10863820      -0.19270097      -0.38136309      -0.13230311      -0.06489635      -0.17263415      -0.31460024       0.00834361      -0.08543460      -0.01811070      -0.19959997       0.87580993       1.90537671       0.13330139      -3.58882465
H        4.00732994      -0.38605645       0.72111630      -0.38802785      -0.37968975       0.22169085      -0.20875283      -0.23417031      -0.03036782       0.00802577      -0.00881940      -0.23880291      -0.00621909       0.02697738      -0.01086246      -0.21332318      -0.40981122      -0.33965557       0.21543342      -3.59384431
H        5.59648943      -3.45677233       2.13928342      -1.11194801       1.22751880      -1.62167406      -0.03363827       0.07053154      -0.07632754       0.03893755      -0.05446424       0.11290654      -0.04122351       0.09563826      -0.09118031       0.03497380      -1.11007721       1.21490572      -1.60942681      -3.89431655
H        5.35601234      -1.95829654       2.75592399      -0.15153264       0.89679331      -0.35388327      -0.04995405      -0.03520067       0.02693321       0.01105531      -0.03615158       0.02187971       0.01826025       0.05363223       0.03894243       0.07772791      -0.13831157       0.90008646      -0.32373450      -3.95762083
H        5.99377680      -1.96792459       1.03086483      -1.06446278      -0.69444215       1.31538856      -0.04604607       0.18526981      -0.01548168      -0.01577582       0.11972728      -0.02565319      -0.02292807      -0.14672274      -0.00347190       0.01216570      -1.08864619      -0.70138056       1.30127715      -3.98065191
H       -3.49988818       3.74761486      -0.45051673       0.76526648       0.70662147       0.23886985      -0.04547014       0.02864739      -0.03040235       0.05124192       0.01978473       0.01281084       0.01314515       0.07013734      -0.04548985       0.04815418       0.79786900       0.71281710       0.20868165      -3.95935178
H       -3.37298322       4.77684498       0.98483348       0.24841636      -0.19800475       0.04493121      -0.05330378       0.02321542      -0.07781862      -0.01246448      -0.08514631       0.11493663       0.00592922      -0.04107155       0.05208892       0.00688581       0.24924691      -0.17606330       0.04536902      -3.97842063
H       -1.93864965       4.66273928      -0.06510171      -0.30936354      -0.23564418      -0.13247217      -0.04614973      -0.02525310       0.11309017      -0.01928629      -0.02371353       0.04013997      -0.02514703      -0.00938398      -0.03997198       0.00336187      -0.29921165      -0.23539363      -0.14100840      -4.00316140
H        0.44212484       0.73865765      -1.66815197       0.36696407      -0.69764876      -0.09246907      -0.03417450       0.01235030       0.01518654       0.03100129      -0.00865818       0.05152214       0.00738892       0.02623726      -0.01693213      -0.03498995       0.32034530      -0.66320307      -0.06287811      -3.99837504
H        1.34209228       0.03063667      -3.00208569      -0.74920428       0.01387976      -0.30631977      -0.05863148       0.00250893       0.02890488       0.00388794       0.05163703      -0.00432864      -0.06206174      -0.06659557      -0.01678409       0.08853747      -0.79967295       0.02580583      -0.29789051      -3.89006053
H        0.27952695      -2.12654233      -2.68358684      -0.31417874      -0.06076223      -0.11486764      -0.06298963       0.05617052      -0.04513220       0.00719282      -0.03592318       0.08131493       0.06235450      -0.00350215       0.03839300      -0.01968814      -0.28802473      -0.03604891      -0.11721738      -3.96487391
H       -0.38645321      -1.66097105      -1.11359668       0.00338914       0.05443582      -0.66192234      -0.04416446      -0.01975936       0.05040147       0.03778032       0.00582896      -0.00347412      -0.06313612       0.01386887      -0.05996709       0.07074775       0.00042136       0.06798301      -0.65808150      -3.96751737
H       -3.03095388       0.89991158       2.48733377       0.56207824       0.26041830      -0.20171730      -0.04716413       0.10232263      -0.05688856      -0.04048869      -0.06822261       0.03385334       0.07459325      -0.02517019       0.05206363       0.01549583       0.55792526       0.25105288      -0.20189024      -3.93203279
H       -2.02588773      -0.39216381       2.93207479       0.40601125      -0.85705721       0.11009780      -0.05556031       0.01532347      -0.01108509       0.00125627       0.07295764       0.01733015      -0.11330175      -0.03310612      -0.04795257       0.11336648       0.41891812      -0.86148596       0.10873393      -4.02653948
H        2.58144045      -1.44283342      -1.76307607      -0.21058844       0.45594460       0.39687735      -0.05096837       0.05889575      -0.05647036      -0.04778446      -0.03387284       0.05329777       0.03642853      -0.06890115       0.06450540       0.02970552      -0.22797199       0.44740847       0.37655580      -3.91456397
H        2.99489594       0.19539696      -1.39391875      -0.94336778       0.05971471       0.11921860      -0.05295806       0.08010277       0.08417837      -0.00046284       0.05752684       0.03124676      -0.02643918      -0.01041002      -0.01287602       0.02352292      -0.98019608       0.03089825       0.15674822      -3.98258398
H       -1.26233852      -0.02278620      -3.68072987       0.28258535      -0.61234629       1.90068102      -0.05079604       0.04150180      -0.00731604       0.02566169      -0.02196841       0.02481930      -0.08558823      -0.05808245      -0.07570619       0.02765828       0.27258830      -0.62990047       1.87618998      -3.89317661
H       -1.76068163      -1.57201719      -3.35417700      -1.39908409      -1.05297530      -0.08813915      -0.06415139      -0.00582207      -0.01190617      -0.03720047      -0.02165487       0.03029313      -0.00885364       0.00653279       0.04592208      -0.00961963      -1.37621516      -0.98738760      -0.11463029      -3.91479683
H       -0.52807468       1.46523643       2.34281874       0.83871049       0.65345937       1.30856478      -0.05445963       0.03212715       0.05293259       0.01007756       0.02855361       0.02543927      -0.01027639      -0.02624602       0.03923901       0.01542605       0.80952433       0.67921050       1.37412695      -3.97378710
H        1.30929756      -1.81564331       0.34124783       1.84199035       0.80961621      -0.19416729      -0.05289990       0.03111532       0.00961648      -0.00856460       0.05987734       0.06530662       0.01146118      -0.04500856       0.00089465      -0.00207959       1.80324699       0.83712934      -0.19966339      -3.93568963
H       -2.14626074       0.47122926      -1.20716941       0.30823395       0.93045610      -0.85447693      -0.16404447      -0.30042905      -0.13558404      -0.05127632      -0.04431099      -0.40527835      -0.04662550       0.02468316      -0.08781596      -0.24401443       0.29425958       0.81779100      -0.84507940      -3.44119791
H       -3.34179592       0.24601108      -2.43591213       1.87035096      -1.00223672       1.27381432      -0.20713349      -0.28911606       0.03046158      -0.03550782       0.02667636      -0.22541805       0.00526691      -0.14893083       0.03039691      -0.32248294       1.87675438      -0.99996018       1.26436841      -3.31032389
H       -2.76911974      -0.88944894      -1.22505295      -0.81471014      -0.81616348       0.01986060      -0.12838884      -0.30677661      -0.00774641      -0.03001065      -0.13108214      -0.29274409       0.10606256       0.14878762       0.16316621      -0.56783173      -0.75218846      -0.75514713      -0.04641943      -3.48892743
51
Properties=species:S:1:pos:R:3:original_dataset_forces:R:3:LES_q:R:1:LES_BEC:R:9:forces:R:3:energies:R:1 original_dataset_energy=-221.991455078125 energy=-222.04371337637485 stress="-inf inf -inf inf -inf -inf -inf -inf -inf" pbc="F F F"
O       -2.26702499       0.52399349       2.93873000       0.11644289       0.22104487      -0.16831999       0.18358041       1.34604029      -0.08337038       0.09333783       0.09214716       0.44960828       0.18488218       0.45843848       0.17890606       0.99814234       0.10585884       0.18348676      -0.25129667      -4.90094237
O       -0.38933137       0.82526684      -2.39355612       0.73755175      -0.14211538      -1.63434398       0.26303858       0.95502275       0.24435057       0.06922225      -0.01301438       1.31408769       0.32884152      -0.14646817       0.12490262       0.70169381       0.70436299      -0.14751666      -1.57322934      -4.68070949
O        4.06234407       0.42574140      -3.07792139       1.18494534       0.06280070      -0.50197428       0.26235428       1.29964926       0.36168457      -0.26594168       0.13431899       0.51300835       0.18162208      -0.60683952       0.00203499       0.77100028       1.16978222       0.07138520      -0.50156504      -4.74759061
O        2.48838091       0.30088285       1.54167414      -0.14049728      -0.44410107       0.09016452       0.26504612       1.08051487       0.16199457       0.48467182       0.24363257       0.37514888       0.10323670       0.32383144      -0.03062707       1.03488192      -0.14551155      -0.45252421       0.11211710      -4.72989963
O       -0.84170961       2.35411906      -0.98022771       0.97053766       1.81383705      -0.82081503       0.33613184       1.14094648      -0.09996648      -0.47898137       0.15241275       0.84589046       0.18118234      -0.44682365       0.44746551       0.98522559       0.85408185       1.82796516      -0.70669353      -4.50767375
C       -1.13809419       0.58033192       3.42718935      -1.29891646       0.35303494       0.35472593      -0.06823816      -2.02760038       0.39472807       0.61502428       0.32754054      -0.33416704      -0.50709189       0.03926076      -0.39998909      -1.13039601      -1.30400756       0.35448018       0.42855238      -5.29613095
C       -0.11507291       1.99306011      -1.95114648      -1.98428583      -1.38258338       2.48110795      -0.09831259      -1.01032847      -0.09136535       0.37939199      -0.17564510      -1.35575935      -0.69472787       0.59336430      -0.80080629      -0.90589932      -1.93956887      -1.37966800       2.34030334      -4.83295823
C        3.01350594       0.18717745      -2.54597235      -2.03621888       0.85759610       1.17329240      -0.10084532      -1.58326127      -0.65839280       0.19821110      -0.50884875      -0.65519167      -0.49658311       0.46428318      -0.35835167      -1.07692983      -1.98855570       0.76437589       1.17053940      -5.31438141
C        1.51425374       0.03172904       0.85904825      -0.10037287       1.32108355      -0.30296379      -0.09219272      -1.19365615      -0.26630464      -0.37583422      -0.34485794      -0.19361161       0.12059660      -0.30900959       0.18307640      -1.70674871      -0.07982750       1.31300112      -0.29169487      -5.22734540
C       -2.80059671      -0.24775147      -0.14065191       0.50233734      -1.47234750      -1.79109287      -0.09504010      -0.13107815      -0.02265381       0.17014809      -0.07185581      -1.55682877      -0.02053102       0.13392595       0.06255708      -1.56227241       0.46382145      -1.31159837      -1.87427705      -5.34880373
N       -2.60427380      -0.50896108      -1.42848134       1.05400872      -0.07671085      -0.95842677       0.19207165       0.18979448       0.02133041      -0.19610331       0.22385477       0.50546429       0.18749789      -0.18998429       0.18554081       0.88982753       1.13700521      -0.16067312      -0.88345908      -3.81961060
N        2.06259727      -0.62551069      -3.04623127       0.90386027       1.09562027       0.59021622       0.14199851       0.78985531       0.30109617      -0.00158897       0.36747103       0.61481535       0.31255518       0.00246380       0.45182318       0.83651185       0.84350396       1.11439652       0.57658305      -4.62546516
N       -2.88347244      -1.10529602       0.81702411      -1.28667235      -3.71421194      -0.68788391       0.09601055       0.23674870       0.00825280      -0.05415981       0.14959874       0.95195550      -0.32080497      -0.17714520      -0.43614369       0.90104182      -1.28534778      -3.73643671      -0.63948886      -4.48168463
N        1.47212791       0.27181956      -0.49881521       0.60044581      -0.94047451       0.47093067       0.16077198       0.59264023       0.17051853      -0.17863000       0.18365083       0.40411880      -0.24465535       0.22180052      -0.12638423       1.21156096       0.68371227      -1.00821403       0.45660332      -4.59516908
N       -0.02480605       0.13899794       2.87325215       0.62832266      -0.08076596      -0.98766470       0.08621981       0.96405985      -0.24893380      -0.45031770      -0.31148342       0.41514730       0.28001185      -0.45494913       0.34366394       0.85560914       0.62906662      -0.13475610      -1.04169325      -4.78162946
N       -2.80559301       0.97934163       0.17500550      -0.94302511       2.71780634      -2.31533480       0.15280934       0.32324031       0.05017426      -0.00971460      -0.19013735       1.12878861       0.15811316       0.01403654       0.05447132       0.48795126      -0.89250531       2.71322113      -2.28905475      -3.91190543
C       -0.92642009       1.13968432       4.81611967      -3.52809763      -4.60373306       0.14554024       0.10912652      -0.04336863       0.03068574       0.08298887       0.00293912      -0.09332563       0.10032245       0.01043717       0.10727336       0.15018100      -3.47801066      -4.59283167       0.17245382      -4.56906913
C        2.30249166      -1.47764230      -4.15329361       2.05947566      -1.36130536       0.93828511       0.05867453      -0.16181740       0.03810714       0.04784474      -0.01811663      -0.22443199      -0.07712251       0.06527922      -0.18940131      -0.44519096       2.06286625      -1.35991503       0.92107482      -4.74186568
C        1.16691446       2.72239876      -2.28675056      -1.41447914       2.10354209      -0.57478917       0.05606122       0.08507549       0.15190078      -0.10447212       0.09716986      -0.04572796      -0.02549316      -0.00010466       0.08602079      -0.14701913      -1.33307582       2.10913550      -0.57610230      -4.84517235
C       -2.52216959      -2.53274035       0.86051965       0.27491027      -0.10356153       1.75004971       0.00610202      -0.35937526      -0.05095474       0.01313236       0.03337000      -0.56710680       0.05580459      -0.06994618      -0.01689644      -0.19096894       0.29726083      -0.29807202       1.76362537      -4.77917874
C       -1.38717842      -2.56343937       1.87534571       0.98433477      -0.59664899       0.32003090       0.11488329      -0.05925348      -0.03738375       0.03948007       0.04665649      -0.02718009      -0.01333285       0.04148340       0.03206215      -0.10095598       0.98087639      -0.55426638       0.24340371      -4.65072611
C        2.28047705       2.37670255      -1.35076129       1.37605906       2.08600187      -1.22306526       0.09414072      -0.07102365      -0.02675492      -0.01610933       0.00423704      -0.16458052       0.04264064      -0.04948579       0.05919172      -0.10719591       1.37715952       2.25394094      -1.26573642      -4.67556110
C       -0.07461554      -1.89602339       1.44830716       0.10243281       0.49450088       0.82351828       0.09229455      -0.09628729       0.02221067      -0.00708243      -0.06123895      -0.16328507       0.09495945       0.02426326      -0.04231242      -0.05095237       0.02040059       0.51824819       0.86652421      -4.58152256
C        2.59746790       0.93106115      -1.21317971      -0.06028949      -1.04916441      -0.13908629      -0.00197304      -0.28091418      -0.14681843       0.08741710      -0.16411417      -0.33901091       0.17347111       0.10694865       0.12068495      -0.15552196      -0.22544298      -1.00800083      -0.14386482      -5.05223293
C        0.16523075      -0.37301773       1.51980639       2.01321077      -2.46596742       1.51835537      -0.01911379       0.00292880       0.07208249       0.00174900       0.11124945      -0.31830072      -0.12899751       0.04966761      -0.20099408      -0.39718288       1.85232158      -2.43490796       1.39123985      -4.97149455
H       -2.52282047      -1.47522843      -1.73401666       0.11651733       0.60164750       0.23353720      -0.18879181      -0.07730353       0.02204783       0.05375169      -0.02264495      -0.27378603      -0.03585851      -0.06917416      -0.05297824      -0.25382197       0.13512372       0.59105795       0.23148510      -3.58279632
H       -1.86060619       0.19083288      -1.76057732      -0.40661907      -1.03762305      -0.83722311      -0.09862888      -0.51465219      -0.23309266       0.09535008      -0.22994686      -0.28366083       0.09865019       0.26804922       0.07455142      -0.15582709      -0.51563977      -1.02814061      -0.84226463      -3.73016946
H        1.25526810      -0.74120265      -2.49120927      -0.67024851      -0.10129775      -0.12023232      -0.18023698      -0.35632518       0.09583346       0.13652711       0.06940283      -0.25402741       0.00194415       0.08481904      -0.00766982      -0.29255689      -0.70000933      -0.13986128      -0.10009980      -3.57279635
H       -3.14418554      -0.66775751       1.64437437      -0.05797773       0.23682685       2.09198475      -0.16297024      -0.18242964      -0.04219364      -0.12913522       0.04048120      -0.29148470      -0.25318312       0.04037444      -0.09895009      -0.47066056      -0.04922828       0.32170815       2.12985392      -3.65769883
H        0.64927089       0.13598123      -1.11826313       0.30579770       0.33387795       1.21097541      -0.14579408      -0.40127310       0.11229217      -0.19495109       0.08509812      -0.25484762       0.08900668      -0.23652734       0.11195077      -0.36771093       0.36998361       0.29783022       1.20660644      -3.74333038
H        0.69940650       0.15320686       3.55721331       1.19925582      -0.17959976      -0.57728654      -0.19985460      -0.22561787      -0.02711012      -0.13867525      -0.01740330      -0.17820715       0.09056171      -0.03956628       0.03714986      -0.24006664       1.20650551      -0.17387132      -0.55907274      -3.55089928
H       -2.78860903       1.26676774       1.07122517       0.21710549       0.88279343       3.55877161      -0.14959602      -0.15627832      -0.00768718      -0.04845823      -0.02819877      -0.20815467       0.11870744      -0.05605179       0.04079626      -0.52526543       0.23975012       0.89973723       3.56308629      -3.60060091
H       -2.46170044       1.63570976      -0.50516385       0.34645638       0.51423019      -0.30299303      -0.12888679      -0.48701155      -0.19831692       0.16969167      -0.14108520      -0.35372023       0.09752972       0.11026983       0.12927369      -0.25109763       0.41464740       0.50574950      -0.37613161      -3.65642632
H       -1.93195653       1.36485803       5.17762661       0.26209298      -0.11354730       0.19943736      -0.03991564       0.07973125      -0.04001120      -0.09572207      -0.02464874      -0.00483974       0.02464950      -0.03293108       0.01499154       0.02625323       0.23745217      -0.10706115       0.15611571      -3.89518831
H       -0.41227755       1.97362137       4.80369806       3.00417256       3.93300700       0.07422502      -0.06315224      -0.00556285       0.04288559       0.01391367       0.02836345       0.05807377       0.06454091      -0.00489846      -0.00408213      -0.03545926       2.98893162       3.94351650       0.07851346      -3.88022950
H       -0.50264585       0.31028107       5.40983582       0.04374192       0.77366352       0.07430212      -0.04555728      -0.00269806      -0.03436586       0.02046260      -0.02554828       0.02254316      -0.10948072       0.01818885      -0.01779938       0.09004482       0.04036335       0.75210010       0.06160473      -3.94540897
H        2.58178282      -0.95801449      -5.07490253      -0.62224376      -0.08376863       0.12736553      -0.05121342      -0.00895093      -0.00677044      -0.06564333       0.06929200      -0.05168697      -0.17134453      -0.05552190       0.03212993       0.12531934      -0.60067316      -0.09225373       0.11871263      -4.02141434
H        1.42830729      -2.12084818      -4.15181303       0.24375129      -0.23889714      -0.92672080      -0.05543626       0.03572003       0.05287102       0.01241911      -0.00620401       0.04520193       0.11171749      -0.02105798       0.01720389       0.00545943       0.25555826      -0.23410269      -0.91815476      -3.96586794
H        3.24826384      -2.05890465      -3.84118152      -1.41122925       0.28961119      -0.95178676      -0.03549324       0.05645240      -0.07581227      -0.00751699      -0.06353316       0.01670894       0.05843322       0.01380254      -0.01998776       0.01349860      -1.41742072       0.32335838      -0.93478773      -3.89527942
H        1.54286456       2.50858545      -3.26452446      -0.22797352      -0.55013704      -0.77368093      -0.05791423      -0.00786026      -0.03676690      -0.03198846       0.00808325       0.01074895      -0.01490955      -0.03044494      -0.03172278       0.11574768      -0.23698401      -0.56835785      -0.75809064      -3.99165233
H        0.94108284       3.84702516      -2.33631778       0.37338218      -1.59458137       0.50832623      -0.04570023       0.02646369      -0.01012370       0.00407364      -0.00701368       0.24158354      -0.09578578      -0.00407540      -0.08227919       0.04174301       0.36963172      -1.57587831       0.54106136      -3.95025060
H       -3.27782965      -3.22937346       1.33812523       0.15957354       1.23473406      -1.04075289      -0.05799888       0.06421485       0.08209983      -0.01178737      -0.03504848       0.04854448      -0.00577679       0.01808414      -0.01842574      -0.01779286       0.15677667       1.26169261      -1.05566778      -3.95772972
H       -2.16800880      -3.00106573      -0.05787924      -0.38402194       0.65682685      -0.27451512      -0.06230096       0.02551167      -0.01452414      -0.01950753      -0.05707911       0.02517481       0.00437320       0.05297127       0.07690598       0.06723017      -0.38373301       0.66130525      -0.30908493      -4.01693511
H       -1.77415693      -2.21562696       2.80757356      -0.14695565       0.54438025       0.67596537      -0.05114340       0.02348258       0.03265706      -0.04334720      -0.00535671      -0.06081348       0.04483460      -0.06661220       0.01208611       0.08752799      -0.12308780       0.56264061       0.72298190      -3.96641774
H       -1.15100980      -3.60238028       2.07357097       0.11557172      -0.33203045      -0.03296214      -0.06068403       0.02563696       0.01161663      -0.00998046      -0.00939972       0.11621219      -0.04626170      -0.00280919      -0.05932127       0.01173328       0.11776708      -0.30101577      -0.05626634      -3.91583936
H        2.29636431       2.89664507      -0.42852449      -1.11392593      -0.20330089       1.52775764      -0.05577668      -0.04812566      -0.03317672       0.03212512      -0.05328403      -0.02450535       0.07673625       0.02675097       0.05340920       0.07685649      -1.14078852      -0.18767653       1.55657165      -3.92372637
H        3.14188147       2.96565890      -1.71835446       0.13655236      -0.90849221      -0.59019083      -0.05008150       0.11095014       0.05414318       0.00525926       0.06909883       0.08384649      -0.05950000      -0.04447127      -0.09216349       0.04425005       0.11529115      -0.90595273      -0.62500384      -3.85098008
H        0.81807840      -2.29410839       1.84047055       0.65429085      -1.12271821       1.44110215      -0.05602944       0.09184128      -0.07435887       0.08010631      -0.02907892       0.01954996      -0.03917679       0.02502449      -0.02913325      -0.00743811       0.70428449      -1.14449516       1.43100544      -3.90010438
H        0.03854936      -2.22587562       0.47467107       0.23333739      -0.09610917      -2.53002262      -0.06121730       0.00981396       0.01812478      -0.02415442      -0.00367951       0.07438925      -0.01488956      -0.02807707       0.05395630       0.05242392       0.25319739      -0.08924142      -2.50696274      -3.86604526
H        3.50614691       0.96321142      -0.65432155       0.33459049      -0.80634862       0.82132506      -0.05877534      -0.00696502      -0.00467872       0.02955495       0.04700988       0.01937903      -0.00355040      -0.04142040      -0.01001904      -0.00618031       0.39544373      -0.88089947       0.84510425      -3.94833585
H       -0.49689013      -0.07392350       0.85363173      -3.42577863       2.66937375      -2.13636303      -0.05241221      -0.05731711       0.01820013       0.02394849       0.03138703      -0.02174766      -0.00836511      -0.02342345       0.03235867       0.01939666      -3.34337023       2.66385600      -2.00597975      -3.86718191
46
Properties=species:S:1:pos:R:3:original_dataset_forces:R:3:LES_q:R:1:LES_BEC:R:9:forces:R:3:energies:R:1 original_dataset_energy=-199.57691955566406 energy=-199.49031623676865 stress="-inf -inf -inf -inf -inf inf -inf inf inf" pbc="F F F"
O        2.75131917      -1.25974679       0.27640778      -0.39140537      -0.32853404       0.93963724       0.24271362       0.64162128      -0.10337100       0.02905859      -0.03213712       0.64000164      -0.56333333      -0.09636817      -0.44425741       1.25946568      -0.49076499      -0.29015025       0.96051413      -4.80022611
O       -2.60103846      -0.33513597       3.36031079      -0.97016472      -0.38260916      -0.14624880       0.40668070       1.58731525       0.38763234      -0.33412825       0.23241813       0.92505205      -0.24230477      -0.14592649      -0.17537785       0.62065456      -1.00574938      -0.37579953      -0.17934670      -4.42242410
O       -0.18914539      -1.56812453      -0.01199353       0.32902360      -0.99670190      -1.08953059       0.22785477       0.53890832       0.07461493       0.02550434      -0.00511014       1.13568106       0.04611152      -0.00355351       0.36404324       0.95978883       0.36491626      -1.04018367      -1.12852725      -4.69411971
O       -3.31898665       1.04760861      -1.88841677      -0.75862968       0.51120400      -0.77386928       0.26402438       0.97436558      -0.05792117       0.41804536      -0.00060981       0.32081298       0.08572493       0.18726868       0.05248014       1.31567119      -0.74236705       0.50790907      -0.81217726      -4.73251776
O       -1.21946967       1.34363055       2.97846889       1.09558558       1.16190541      -0.76985765       0.37288353       0.79017370       0.09026506       0.05433864       0.30401699       1.47743881      -0.12153715      -0.05124690      -0.10493913       0.68352234       1.06716334       1.13802346      -0.75093259      -4.55245256
C        2.63792920      -1.94110537       1.31373119       1.80979085      -0.24926691      -0.07099912      -0.07467187      -1.55965437       0.44731124       0.40279567       0.16935469      -0.54328030       0.56651553       0.63846161       0.44391503      -1.27565207       1.76109155      -0.31432698      -0.01915188      -5.26745935
C       -1.48729336       0.14725906       3.14849663      -0.79150736      -0.88788366       0.84028029      -0.05823109      -1.68402521      -0.40242379       0.36210473      -0.38654779      -1.84227879       0.26408263       0.18378969       0.26778016      -0.12364980      -0.73130512      -0.88259891       0.80733116      -5.14487374
C       -0.00367856      -0.58253551       0.68322235      -0.34610242      -0.45542035       0.94307077      -0.09774730      -0.41325993       0.21141896      -0.40471022       0.28652039      -1.72307866       0.06017715      -0.32193522      -0.18902930      -0.86489494      -0.38505705      -0.28565231       0.90946020      -5.25908814
C       -2.68972111       1.14270234      -0.86250997       0.00531930      -1.23950815       1.36758733      -0.09963369      -1.29168798       0.24235807      -0.08531857       0.11937534      -0.12407856      -0.20548221      -0.10536533      -0.17204085      -1.95360164      -0.01615376      -1.25663312       1.30353397      -5.29781153
N       -3.18442893       1.30465889       0.39626348       1.43107057       0.26475081      -2.27784729       0.12009045       0.73166389      -0.09999294      -0.43758894      -0.04465179       0.15332663       0.13371102      -0.03564535       0.03037233       1.00749527       1.51406695       0.32899477      -2.21503371      -4.76090966
N        1.58858347      -1.92385721       2.13208175      -1.06740248       2.80933857      -2.12155914       0.10912715       1.18096239      -0.27607637      -0.43370274      -0.22074119       0.34167628      -0.06906833      -0.53749515      -0.01341864       0.63521213      -1.05669066       2.83250931      -2.17642493      -4.65311116
N       -0.47347260       0.60434097       0.30289054      -0.04507233       2.03910899      -0.00292558       0.11883143       0.38766808      -0.31455970       0.21233673      -0.20978449       1.00354414      -0.17530650       0.25591131      -0.36856653       0.64688493      -0.03634446       1.92969782       0.08448431      -4.71367194
C        3.81914210      -2.78672171       1.83162594       0.65555847       0.27563107      -2.99614525       0.10894999       0.10658707      -0.13018160       0.05988116      -0.04752480      -0.05467000      -0.06081853      -0.02877249      -0.04357606      -0.07927211       0.63261164       0.27645426      -2.94740029      -4.51816076
C       -4.53159761       1.23066974       0.76006621      -0.51321185      -2.20380807       3.17579246       0.06984359      -0.47660963       0.01124298       0.15948091      -0.05139953      -0.10268834       0.00192501       0.28687179      -0.04668068      -0.23925902      -0.50695729      -2.21040032       3.22056143      -4.74244129
C        1.02138424       1.96186066      -1.94840908      -1.64796114       2.29455018      -1.77085841       0.08840873      -0.11360365       0.03607418       0.00738122       0.05980703      -0.08872553      -0.00520908      -0.04568541      -0.05802042      -0.08384989      -1.59148893       2.33193309      -1.82755196      -4.52835580
C        1.28430796       1.19331908      -3.30158854      -1.41019416       1.58591080      -0.24102160       0.09508261      -0.07811597      -0.01323357      -0.07391058      -0.04549603      -0.11178198      -0.07083246       0.04191108      -0.00070027      -0.24414672      -1.37783552       1.56417956      -0.07582703      -4.59069909
C       -0.35784262      -0.88494974       3.19085169       0.11441379      -1.35919607      -0.45124701       0.09382864       0.10773203      -0.13810866       0.03927740      -0.18359839       0.11586515       0.00220728       0.03074365      -0.00557121      -0.14481058       0.16639928      -1.41567052      -0.40656118      -4.73107165
C       -0.49747366       2.10366440      -1.56913066       0.35508415       0.14361532      -0.13401309       0.08586399      -0.10817013      -0.04064612       0.02893463      -0.03008555      -0.19651311       0.07461252       0.06802747      -0.03746396      -0.09172405       0.37297684       0.12063656      -0.14351505      -4.73315665
C        0.81233466      -0.22043723      -3.34530306      -0.22356695       0.25258911      -1.27419770       0.01226045      -0.23863365       0.09489774      -0.10463010       0.07501956      -0.30464859       0.16552010      -0.13718170       0.16730473      -0.30810354      -0.27288779       0.31986274      -1.19072252      -4.85535823
C        0.66265500      -0.74416924       2.06696320      -1.61489022      -3.07250595      -0.55986637      -0.02826682      -0.35163237       0.13586211       0.12497877       0.15089792      -0.32949985      -0.02063310       0.09190503       0.06180349      -0.21947091      -1.54164108      -2.97610804      -0.44473117      -5.10096554
C       -1.17743754       0.89826816      -0.97150064       1.43550014      -1.49318624       0.53905189      -0.00231221      -0.06433885       0.00305889      -0.13041313      -0.01001307      -0.24749803       0.09125629      -0.20357596       0.21491923      -0.46373590       1.46153681      -1.47150850       0.55310036      -5.09650583
N        1.49939895      -0.93412650      -2.28079796       0.52279794      -1.48897767       1.63408923      -0.00729178       0.28595504      -0.07553997       0.02054934      -0.10436985       0.32914491      -0.00923164       0.06176138      -0.10698102       0.38909867       0.56134010      -1.50150632       1.53343061      -4.23676220
H       -2.53555393       1.09535575       1.10252333       0.77580023       0.01803846       1.33580899      -0.16790427      -0.27012368       0.02534826      -0.10548406       0.01962410      -0.20601262      -0.01703618      -0.16564189       0.06028905      -0.31424652       0.73481817       0.01807079       1.27864854      -3.66256314
H        1.42101979      -2.58491087       2.82439041       0.04860816      -1.10939145       1.18303168      -0.21127924      -0.14470310      -0.03790338      -0.05110808      -0.04955346      -0.20203396       0.09653427      -0.02865968       0.03533918      -0.25272746       0.10284929      -1.13400166       1.13365788      -3.57843578
H       -0.33018374       1.44286013       0.88225085      -0.10291792      -1.01527095       0.18686263      -0.19822343      -0.18845652      -0.03312827       0.05570411      -0.00105700      -0.26483940      -0.04826989       0.07157920      -0.06217441      -0.33112071      -0.04294033      -0.98215987       0.16294849      -3.61743834
H        3.60650516      -3.81539917       1.80215192      -0.95302010      -1.43308079       1.04793048      -0.05153692      -0.05373853       0.04542819      -0.03412501      -0.02287022       0.10589523      -0.02827741       0.01326145      -0.00171671      -0.01877212      -0.96372233      -1.47256888       1.05753259      -3.93172771
H        4.28944683      -2.43714738       2.71973705      -0.08404420       0.16221549       0.76415682      -0.05568324       0.02044501       0.00029576       0.04314110       0.01572449      -0.03053881       0.04172754       0.08161434      -0.00201375       0.07106870      -0.07014194       0.15668531       0.76112400      -4.02635151
H        4.59485817      -2.86764336       1.03432703      -0.36037406       0.98636502       0.44890773      -0.03408451       0.17521168      -0.08204264      -0.01774071      -0.05121497       0.01627432       0.00416281      -0.07118443       0.00684951       0.04600713      -0.34660843       1.01587951       0.42852580      -3.86413380
H       -4.60299206       1.11116743       1.88055182       0.45840818       0.04402271      -1.13562739      -0.03398943       0.10409723      -0.01313066      -0.07846685       0.01566991      -0.02036364      -0.00033267      -0.06254834      -0.00937655       0.09591132       0.46736850       0.02982590      -1.08639590      -3.88913478
H       -5.14535427       2.01121473       0.57108766      -1.31046593       3.03316927      -1.07690406      -0.05534657      -0.03372247      -0.01087305       0.02351218       0.01384333       0.00213428      -0.02998913      -0.11293823       0.01971829      -0.01036125      -1.33396920       3.01979370      -1.10051306      -3.90673070
H       -5.06668377       0.39413422       0.38012141      -0.04833621      -1.05370963      -0.65497667      -0.04548301       0.03437651       0.02888102       0.00770833       0.03746305       0.02300113       0.02624409      -0.04540152       0.05212826       0.00389321      -0.10081671      -1.06519325      -0.66750734      -3.94089092
H        1.33223653       3.05722857      -2.18897080      -0.06388666      -1.99280548       0.74096233      -0.05285082       0.06363619       0.07559316      -0.05554390       0.08080135       0.18324143      -0.04507973      -0.01536922       0.02185759      -0.01855018      -0.10660264      -2.02786596       0.78425473      -3.91265660
H        1.55264950       1.57728553      -1.10761333       0.67344230      -0.18690948       0.45596790      -0.06368458       0.03218161      -0.01335738       0.01033434      -0.05698154      -0.03176894      -0.00332793       0.07529281       0.03353758       0.02302922       0.72534418      -0.18869684       0.40191883      -4.03723041
H        2.34956884       1.19767952      -3.46175218       0.38406324       0.32886818      -0.52108693      -0.06080724       0.11647724       0.01827473      -0.07824431       0.01720360      -0.02658950       0.02170803      -0.04261941       0.02435477       0.03138579       0.40002148       0.42372958      -0.57069280      -3.96412557
H        0.69045806       1.69684339      -4.14634705       1.30999720      -0.31241894       1.22371554      -0.05541021       0.00350822      -0.03737750       0.05627800      -0.03142288       0.04874608      -0.00230069       0.02202701      -0.06921468       0.13455659       1.33834985      -0.34230792       1.20137768      -3.92959992
H        0.16943467      -0.78847736       4.12470818       0.29494682       0.27121967       0.41462329      -0.05363095       0.03242184       0.00523777       0.00105472       0.00474071      -0.01014916      -0.03613982       0.04949205      -0.02560430       0.10730857       0.29065443       0.24664928       0.38902438      -3.97925260
H       -0.73630619      -1.93565774       3.19180155      -0.15930527       0.94509387      -0.18886474      -0.04255088      -0.01113996       0.05256279      -0.06780933       0.01929972       0.14564029      -0.05077505      -0.01177645      -0.03010085       0.06503585      -0.15948418       0.97050285      -0.17728523      -3.94456654
H       -0.73382384       2.90691590      -0.86635357       0.77624416       0.21055150       0.03012998      -0.05317589       0.02349874      -0.04081309      -0.03313309      -0.03425317       0.12345580       0.02450220      -0.03019823       0.07250651       0.01843499       0.77157638       0.26239465       0.01426625      -3.93553016
H       -1.07154000       2.38307643      -2.42539811      -0.22993164       0.11985827      -0.87003839      -0.05045876       0.03606741      -0.05609007       0.08246290      -0.03538372       0.05239199      -0.06317237       0.02669099      -0.01782459       0.04285465      -0.24730739       0.14464975      -0.84828063      -3.95155737
H        0.99953723      -0.69412255      -4.32705498       0.15177771       0.23088208       0.64031762      -0.06109705      -0.01338959      -0.01475110      -0.05966616      -0.01119161       0.03005973       0.08784708       0.03810098       0.02423129       0.07638518       0.14415439       0.24204560       0.66241000      -3.95478659
H       -0.25928336      -0.19468969      -3.21049786      -0.07404969      -0.59965378       0.19111164      -0.06442257       0.05838791       0.01491685       0.08871793      -0.01187874      -0.01990695      -0.01232826       0.01379432      -0.03081048      -0.08976298      -0.10530509      -0.67581290       0.14955153      -3.89634879
H        1.23870087       0.03228372       2.31699657       2.05967021       3.33975983       0.40131027      -0.06207722       0.00497779       0.00936589       0.00561802       0.02684204       0.03510766       0.04040881       0.00100402       0.00903347      -0.05636905       2.00914506       3.37203414       0.38795974      -3.94207527
H       -1.00096178       0.00010145      -1.61600399      -0.81631428       0.84638876       0.84996688      -0.05063817       0.03947142      -0.00888499       0.05945945       0.00659285       0.04536598       0.03577938      -0.01116973       0.02481733       0.01965325      -0.90065697       0.76782306       0.80878775      -3.91335132
H        0.91947329      -1.02109635      -1.44211674      -0.91440862      -0.21194957       0.65090507      -0.14097829      -0.38974178      -0.01992263       0.17539483      -0.07238217      -0.16980565       0.12893380       0.17951247       0.07373746      -0.50901718      -0.91039352      -0.28192823       0.58496363      -3.46739593
H        1.67541456      -1.94514418      -2.46449828       0.47034797       1.18459380       0.05430201      -0.20416537      -0.22536252       0.02807276       0.00559021       0.09384592      -0.34978410      -0.11157171       0.04688840      -0.08227485      -0.31219111       0.44025398       1.16568052       0.07611114      -3.30248588
H        2.29791546      -0.41893041      -1.83577156      -0.26561034      -0.98687547      -0.93275213      -0.18518518      -0.36760151      -0.01838404       0.02608042       0.00119790      -0.25332309      -0.00733403      -0.15565089       0.03671585      -0.24802832      -0.28344666      -0.99489130      -0.88690065      -3.27350992
46
Properties=species:S:1:pos:R:3:original_dataset_forces:R:3:LES_q:R:1:LES_BEC:R:9:forces:R:3:energies:R:1 original_dataset_energy=-199.51962280273438 energy=-199.5111524442767 stress="inf -inf inf -inf inf -inf inf -inf inf" pbc="F F F"
O       -0.87883413      -1.78360868       3.18975139      -1.08504176      -2.14729452      -1.55338776       0.20512649       0.74572292       0.28484404       0.06700264       0.42565140       1.04012433       0.04653145       0.19946266       0.22930272       0.89589885      -0.95970211      -2.10690573      -1.34586560      -4.82376668
O        3.14713955       1.77416790       0.32716000       1.15169585       0.35240677      -1.89355397       0.33244094       0.65145843      -0.02638358      -0.07232365       0.16301356       0.80146809      -0.24445101      -0.34688130      -0.14297216       1.74095594       1.16289021       0.32670733      -1.94531918      -4.59453829
O       -0.68080103       0.73224097       0.82712561       0.51295435      -0.46990377       0.92218560       0.19208209       1.18629202      -0.25722173      -0.25046926      -0.18970641       0.57822155       0.13363195       0.12533764       0.03593408       0.68993115       0.60625401      -0.38148477       0.92044721      -4.73210068
O        0.46612006       1.34919298      -4.17698908       0.99843854      -0.13724288       3.77944660       0.30128568       0.67379742       0.26971573       0.15450321       0.21301737       0.57605342      -0.18192975       0.40789844       0.06976830       1.26971633       1.10124485      -0.03866579       3.70303909      -4.64601783
O        2.15701914       2.29916859       2.23214340       0.79888588      -1.27460241       0.48660213       0.41319078       0.85660212      -0.14425664      -0.45068184      -0.20057094       1.13561495       0.45402099      -0.37636506       0.12799476       1.05848604       0.80024837      -1.34760862       0.46058763      -4.38266856
C       -0.41691017      -0.75706995       3.58666015       1.51683152       4.18932343       2.13924432      -0.08054505      -1.19487390      -0.72587885       0.73022237      -0.75442307      -1.29248662      -0.04172855       0.37012050      -0.23879383      -0.96806894       1.52596028       4.12337644       2.04007416      -5.28498713
C        2.79711580       1.51304400       1.47496748      -2.29800749       0.43005624       0.69963932      -0.05228560      -0.70134060       0.19887862       0.68769546       0.23657192      -1.44844221      -0.19424534       0.80977779      -0.12418774      -1.74109875      -2.33489970       0.40825509       0.85986833      -5.02894643
C        0.41052556       0.16028112       0.65580958      -0.88608593       0.70156801      -2.31416583      -0.11167615      -0.99346502       0.47451788       0.29675106       0.53773424      -0.45404382      -0.19035409       0.14948890      -0.06838108      -1.47014220      -0.88347157       0.78092286      -2.24391842      -5.08907012
C        0.83674526       1.29713666      -2.95432949      -0.13576292      -0.35534182      -1.55039144      -0.10396512      -1.07172765      -0.59691829      -0.47882950      -0.62928326      -0.53212163      -0.03247933      -0.39188245       0.00892808      -1.51800151      -0.32440468      -0.51066236      -1.48916786      -5.21235190
N        1.87275350       1.97198844      -2.42894197       0.56316489       0.29016826       0.94965005       0.11016773       0.74087499       0.37404872       0.35831078       0.46349993       0.49908031       0.10219935      -0.06187840      -0.25931022       0.85317162       0.68116835       0.37301627       1.09027488      -4.66539157
N        0.67729867      -0.10729165       3.10049582       0.52814853      -0.41483483      -1.46178961       0.14485157       0.91632997       0.41581222      -0.60605991       0.26292367       0.52054153      -0.16003749      -0.37685079      -0.12249197       0.69078870       0.45692680      -0.41293982      -1.37138437      -4.70012247
N        0.74570382      -0.06127587      -0.66572273       1.49466062       0.08276515      -0.25528026       0.14496191       0.45367664      -0.07308810       0.08804944      -0.07768734       0.36215523       0.01295075      -0.21144821       0.07208380       1.25014827       1.45518327       0.02188377      -0.23170593      -4.57181985
C       -1.01498115       0.03580885       4.78295135       0.78780317      -2.21622276       0.19785911       0.11662006      -0.00373933      -0.01437105      -0.19618907      -0.01319851       0.01456153       0.03456005      -0.09115141       0.11861689       0.01392401       0.72861905      -2.24481352       0.19409836      -4.62531641
C        2.59199524       2.96213579      -3.18928123       2.27984858       0.34989658       0.50002193       0.06828219      -0.21696345      -0.08616566       0.05444182      -0.24666160      -0.42418211       0.23319088       0.23759558       0.24037666      -0.35817863       2.34214178       0.35930265       0.50465856      -4.76009749
C       -2.29114342      -0.70818686      -2.36721683       0.71663088      -0.17788696       2.45568419       0.07926663      -0.21520299      -0.06160637      -0.09881517      -0.01814227      -0.14199715       0.00501108       0.09168612      -0.01836294      -0.05444839       0.65624500      -0.17463068       2.47912591      -4.75455844
C       -2.79938126      -1.95315528      -1.60304737      -1.33469665       0.93360889       1.34725189       0.10119314      -0.14547473       0.00339407       0.01752964       0.03152375      -0.09677621       0.10694601       0.00548190       0.12934877      -0.04805626      -1.47262881       0.78978526       1.32500509      -4.57086027
C        2.77122736      -0.02514177       1.76638222       0.33200416       0.39038271      -0.34079245       0.07706332       0.01384834       0.04046122       0.05694270       0.02377920       0.28379406      -0.05525021      -0.03312174       0.00235047      -0.06318557       0.26595374       0.45685371      -0.35325476      -4.77298228
C       -0.76414436      -0.67414820      -2.56965160       0.10583799       0.54001188       0.88195878       0.08736704      -0.11466721       0.06316972       0.01024439       0.00283013      -0.05168090      -0.15836657      -0.02766406      -0.06047514      -0.15764828       0.13195429       0.63963785       0.87766004      -4.61446628
C       -2.05193853      -2.29062414      -0.29980958       0.09455218      -0.17766760      -1.44580138       0.01292311      -0.29905858      -0.03760634       0.04029025       0.11428963      -0.30773410      -0.20713914       0.11291976      -0.16531863      -0.36501879       0.14855095      -0.08534853      -1.51896572      -4.62722961
C        1.29170942      -0.43054301       1.79274082      -0.67658460      -0.92566568       0.78353113      -0.03168103      -0.43690049      -0.04374824       0.15172600       0.01801731      -0.15789843      -0.01972594       0.17417416      -0.07760693      -0.34811210      -0.62834373      -0.96744965       0.54109437      -5.10827520
C        0.00598294       0.46106362      -1.90356016       0.56104451      -0.16752718       0.14585423       0.00122229      -0.16637024       0.06066286      -0.14701260       0.06050327      -0.24447047       0.11029858      -0.21027568       0.02399422      -0.37293837       0.58519158      -0.05131853       0.22635002      -4.92939171
N       -2.36748123      -1.22466230       0.70438188      -1.34689152       0.84942210      -1.34853613       0.01069732       0.55982857       0.16377307      -0.06508628       0.24581026       0.42219185       0.11138821      -0.03197524       0.06057206       0.38708583      -1.64912364       0.60448332      -1.38121750      -4.10055167
H        2.25298977       1.97046804      -1.42903793      -1.28552055      -0.75081223      -1.20166433      -0.15931699      -0.26427905      -0.00091655      -0.17039993      -0.04536812      -0.23453314       0.11055776      -0.08038433       0.13642725      -0.69712412      -1.34061756      -0.76113833      -1.40098730      -3.79662653
H        1.00750434       0.80778557       3.41884470      -0.53624040      -0.20919214       0.00908643      -0.19323485      -0.24692570      -0.08874289       0.07478757      -0.12829668      -0.33607910       0.02992128       0.01551806       0.03718265      -0.21916262      -0.51360909      -0.26569307      -0.04529163      -3.66404661
H        1.70160615      -0.42388847      -0.84247220      -1.08153582       0.54106927       0.17134699      -0.20541193      -0.21134118       0.00506089       0.00114619       0.01598523      -0.22281656      -0.03101211       0.03500820      -0.01702854      -0.18397808      -1.01952696       0.56481786       0.16360532      -3.63669152
H       -0.85978293       1.06377244       4.67288256       0.26475850       1.47718167      -0.16808942      -0.05117032      -0.01916504       0.00938989      -0.01828496       0.00577780       0.07869404       0.00746468      -0.00480903       0.00093602      -0.00558989       0.26818835       1.46586611      -0.17454018      -3.96006109
H       -2.05587482      -0.18015742       4.82434416      -0.82125711      -0.13889039       0.09209681      -0.04771674       0.09293050       0.00963373      -0.06130200       0.00846490      -0.01459588       0.03912471      -0.03056332       0.00760725       0.04978067      -0.81713762      -0.11364521       0.06885051      -3.96580560
H       -0.56341267      -0.30146217       5.73975420      -0.20100090       0.14613925      -0.65356338      -0.04642926      -0.00231660      -0.01692867       0.04782819      -0.01327772      -0.00736535      -0.03334259       0.01170201      -0.02756563       0.16169053      -0.17486777       0.14969544      -0.64667201      -3.98287646
H        3.56033134       2.57617807      -3.62762189      -1.06569159       0.15583676       0.45259392      -0.04804365       0.09873117       0.03711460      -0.11381596       0.00299047       0.02965006      -0.03345793      -0.06918167      -0.02972097       0.03075402      -1.07964464       0.14949009       0.42979437      -3.95843934
H        2.03380585       3.38200712      -3.98068714      -0.81577098       0.22589251      -0.74355841      -0.04283193      -0.02996407      -0.06876745       0.07031450       0.01822486       0.00543159      -0.05052464      -0.01491505      -0.06519553       0.05941360      -0.80403377       0.21460533      -0.69871499      -3.99257743
H        2.88880014       3.77390862      -2.48745346      -0.25541273      -0.54287046      -0.51342696      -0.04830966       0.01475438       0.05683306      -0.01753439       0.13031334       0.14491150      -0.07097742      -0.02773558       0.01058073       0.05189596      -0.27858308      -0.53926990      -0.53483347      -3.94299860
H       -2.62231636       0.14385805      -1.69624758       0.48961216      -0.52753109      -1.19320059      -0.05079061       0.03512761      -0.01760376      -0.04089741      -0.05351996       0.06680329       0.02621977      -0.07278244       0.06674912       0.00823614       0.47797607      -0.54870523      -1.21264340      -3.92405789
H       -2.74921179      -0.63050807      -3.31141376      -0.84831816       0.21230915      -0.90244591      -0.06904932       0.04430150       0.01241864       0.06950456      -0.01806956      -0.02064492      -0.04679841       0.02993803      -0.03319607       0.06497170      -0.84633940       0.18645510      -0.89177700      -3.97969013
H       -3.91170979      -1.86269975      -1.38223886       1.15678954       0.11266720      -0.23062417      -0.04843930       0.24214308       0.06338178       0.02699186       0.00707890       0.00407813      -0.01437183      -0.12735927      -0.07331829      -0.02932133       1.12747229       0.16072728      -0.26444910      -3.91608886
H       -2.73202276      -2.87031174      -2.09041476       0.22216104      -1.30693710      -1.65630317      -0.06666792       0.00893214       0.02135110       0.00576485       0.02787552       0.09380231       0.04907122      -0.04313979      -0.00771051      -0.00854587       0.24541506      -1.26261160      -1.66858596      -3.90805439
H        3.26757193      -0.32914370       2.69885659      -0.35074848       0.07829984      -0.28897491      -0.05443140       0.06917314      -0.01398769       0.06907433      -0.02025174       0.02024176      -0.04890350       0.11235323      -0.03799880       0.09860846      -0.35293367       0.09959101      -0.26063544      -4.04447859
H        3.27693415      -0.50456363       0.90575272      -0.24366491       0.15169634       0.63221866      -0.04982399       0.08928622      -0.01618785      -0.01109635      -0.11737732       0.00229998       0.00445725      -0.07550102       0.05916007       0.04536873      -0.28761438       0.16513660       0.61760938      -3.96354008
H       -0.20462814      -1.51612341      -2.29322267      -0.01027387      -1.83083534       1.39714587      -0.05524797       0.04243199      -0.06060816       0.01612014      -0.02246132       0.07834112       0.03646516       0.03739615      -0.01267790      -0.09224226      -0.06385054      -1.79515390       1.29301566      -3.79622473
H       -0.45196974      -0.77558333      -3.55538177      -0.31482491       0.93091923      -2.32332873      -0.04436004       0.02078972      -0.01945709      -0.07833258      -0.03705109      -0.07701861      -0.01065626       0.00897610       0.09085119       0.21651231      -0.24805441       0.84260589      -2.28637069      -3.83105443
H       -2.40500259      -3.25706339       0.03474677      -0.05357252       0.04322198       0.45115495      -0.06289361      -0.00047084       0.04426467      -0.00325118      -0.00560815       0.08672293      -0.02158741      -0.03144229      -0.05264209       0.02147301      -0.02895471       0.01073233       0.43701483      -3.96322362
H       -1.00601387      -2.44081068      -0.66837478      -0.53529847       0.77447885       1.47493315      -0.05800554       0.09152599      -0.00337346      -0.00996788      -0.04226465      -0.05050932       0.02017886      -0.09310146      -0.02662920      -0.00423426      -0.53628040       0.67567576       1.65082972      -3.95103035
H        1.21938229      -1.53400695       1.68731284      -0.05738451       0.58746314      -0.08074522      -0.05498590       0.00673934       0.02286886       0.00617310       0.03586252       0.06731161       0.07235373       0.01000449      -0.00807068       0.03097921      -0.05637535       0.62823409      -0.01893733      -4.01520999
H       -0.71076572       1.19694352      -1.60952210      -0.28399554       0.42506301       0.78108048      -0.05679035      -0.00693357      -0.03203774       0.00314482      -0.02469688       0.04005723      -0.02878837       0.00280989       0.02968811      -0.01080326      -0.28510804       0.36953972       0.71899259      -3.94896009
H       -2.10013556      -1.36645746       1.68524623       0.60669380      -0.31716815      -0.07033063      -0.15980604      -0.27461577       0.05974617      -0.23665217      -0.01117948      -0.21003538       0.11123943      -0.06619297       0.10379531      -0.57067906       0.57820445      -0.25942522      -0.20973800      -3.59280504
H       -3.43485546      -1.18085957       0.66409844       1.94166148       0.33438200       0.21996893      -0.20886338      -0.53725280      -0.05160883       0.03257275       0.01054824      -0.20394818      -0.00109799       0.05478371       0.02586568      -0.22683788       2.11663641       0.35560447       0.30070012      -3.25884791
H       -1.90694332      -0.28180042       0.36023009      -0.59541398      -1.21435583       1.21491051      -0.11610544      -0.50224929      -0.23387653      -0.01013052      -0.39319135      -0.42277220       0.01944272      -0.10583077      -0.01845931      -0.17637454      -0.47631954      -1.05553115       1.29227965      -3.51109740
42
Properties=species:S:1:pos:R:3:original_dataset_forces:R:3:LES_q:R:1:LES_BEC:R:9:forces:R:3:energies:R:1 original_dataset_energy=-190.06153869628906 energy=-190.10666982641374 stress="inf -inf -inf -inf -inf inf -inf inf inf" pbc="F F F"
O       -2.55418539      -0.58579201      -2.68084860       1.48414564       0.83739609      -0.90477443       0.28714994       0.92174019       0.32016283       0.05492732       0.09275459       0.90255005      -0.52243236       0.14118201      -0.38280668       0.82328887       1.50554798       0.80859473      -0.91889908      -4.62239959
O        2.32608652      -3.39386821       0.45985854      -0.32949999       0.11077918       0.78958148       0.39966425       1.09086199      -0.39256100       0.44092934      -0.26504917       1.03871163      -0.42753955       0.29963586      -0.50438292       0.99921872      -0.30362033       0.10464725       0.81045021      -4.44988874
O        0.12285331       3.94131684       0.48029852       1.49517441       2.84786630      -0.13414040       0.26137733       0.53888802       0.33790819      -0.16626989       0.33175182       1.54975200      -0.01431197      -0.09846570       0.24930861       0.54127129       1.49747806       2.83613057      -0.16740599      -4.66949706
O       -0.44913810      -0.20929980       0.88981020       0.34724414      -1.19218636      -0.93889540       0.19482850       0.39723606      -0.11951453       0.00584890      -0.08358838       0.73125832       0.16103202      -0.09354457      -0.08802922       1.18161679       0.22299750      -1.06145753      -0.90320615      -4.75291038
O        2.01751184      -2.08502507      -1.28354001       0.13065642       1.41527605      -0.65345514       0.34098339       0.93618005       0.37867732      -0.16013934       0.18245949       1.06973507      -0.32015822       0.03841260      -0.44753287       1.10836472       0.06176304       1.44569025      -0.63849914      -4.58312089
C       -2.90042877      -1.50231433      -1.95615172      -0.72529596       2.93977523      -0.77378166      -0.07269494      -1.31103760      -0.07426933      -0.44719661       0.15297844      -0.92967091       0.88980440      -0.41437185       0.81113917      -1.00804654      -0.74312792       3.01963351      -0.80219471      -5.29106425
C        1.59742677      -2.75622773      -0.30558473       0.32359934      -0.69285446       0.07954355      -0.06464526      -1.46513860       0.19719865      -0.07314502       0.14477721      -0.93475068       0.94317935      -0.14113950       1.08114695      -1.37433812       0.35473649      -0.63054081       0.03922853      -5.16170212
C       -0.24008936       2.81861472       0.33633113      -0.76500142      -1.79356647       0.80407083      -0.11280559      -0.69145375      -0.69464533       0.58820197      -0.53703309      -1.53290615       0.05266577       0.57488909      -0.04765000      -0.92298350      -0.80476335      -1.66403018       0.86688252      -5.27947710
C       -0.46694824      -0.36427635      -0.33618695       0.21039449       0.87955958      -0.05714653      -0.10440853      -0.16557826      -0.15278588      -0.02313611      -0.11803577      -1.23741800       0.25734697       0.09901758       0.31059277      -1.58125775       0.33148952       0.77579143       0.05483815      -5.18064113
C        2.46337748       1.44763803       1.68320489       0.42943475      -1.67459464      -2.29696488       0.00081205      -0.09997145      -0.00125762      -0.09973630       0.04400977      -0.13146887       0.09587957       0.03564410      -0.16288484      -0.02216982       0.43471278      -1.71962054      -2.31947794      -5.33789929
C        2.47182608       1.06364465       0.36146259      -0.86298782       0.73393255       0.82366180      -0.03568354      -0.11496420       0.11088472       0.04229374       0.04423252      -0.19843790      -0.15202761      -0.30804917       0.01123249      -0.32228080      -0.96005254       0.75892252       0.72539509      -5.52259112
C        3.40747690      -0.51160765       1.47104979      -0.15451996      -0.37792283      -0.55504924      -0.10963549      -0.23912947      -0.02095463      -0.05881297       0.12237637      -0.18922566      -0.07285470      -0.05066881      -0.14434119      -0.63746269      -0.18933218      -0.42092609      -0.58127804      -5.54978372
N        3.03359365       0.41573912       2.39474583       0.19377887      -0.20023316      -3.46573472      -0.01190059       0.13897446      -0.02303151       0.07456582      -0.12616227       0.14505507       0.07477784      -0.03592467       0.11616962       0.43862860       0.30005717      -0.23771862      -3.42861561      -5.10921007
N       -1.06288552       2.24197435       1.23578668      -1.34704268      -1.56559539      -0.67004013       0.15652397       0.55787433       0.27208776      -0.40232026       0.09399420       0.77377637       0.03152800      -0.47322315      -0.13020686       0.77452796      -1.35152106      -1.53569051      -0.67605637      -4.55827807
N       -0.31735569       0.69536215      -1.20064688       0.55131221      -0.46377119       2.41186309       0.14475399       0.37200592       0.15252740      -0.03644001       0.19780141       0.94609662      -0.38209601      -0.03059261      -0.19516014       0.79801294       0.57140976      -0.50683997       2.26129283      -4.57987204
N       -2.08778238      -2.09060192      -1.12678349       1.93651533      -1.73963630       2.19460464       0.09142530       1.26680826      -0.02225702       0.71963411      -0.06168217       0.61098379      -0.24326569       0.42211246      -0.33439773       0.65355450       1.96515769      -1.69454767       2.16890933      -4.78593522
N        3.09023952      -0.13506341       0.19141275       0.04263384       0.12386365       3.34152150      -0.00748308       0.13238528      -0.10805444       0.06373565      -0.14585848       0.25482648       0.07168808       0.02860797       0.18136178       0.63346668       0.09016823       0.04468572       3.35793883      -5.13714236
C       -4.32882214      -1.75699663      -1.96033907       0.05221431      -3.87085629       0.26407814       0.10237803      -0.04924157       0.01474097      -0.04264116      -0.07150817      -0.09331124      -0.08643173      -0.02791254      -0.08721159      -0.13116675       0.03353065      -3.89690027       0.30648660      -4.54915028
C       -1.38513923       2.80286980       2.54166913      -0.17030348       2.30130291       0.57560229       0.06954522      -0.19347918       0.09452236       0.14566383       0.10904816      -0.30496674      -0.19402453       0.07056570       0.00074522      -0.37425102      -0.10943718       2.28499640       0.62562316      -4.63305138
C        1.91534126       1.77305818      -0.77939844      -0.01010551       3.10152268      -0.88804001       0.04565446      -0.05700681       0.10163590      -0.08074372      -0.17010342      -0.23640824       0.05169377       0.10589652       0.10111145      -0.10677890      -0.04944745       3.09803193      -0.88407933      -4.73745503
C        0.05890857      -2.87083173      -0.18774691      -0.34390387       0.72436136       1.08273792       0.08905244       0.29210847       0.12379804      -0.01987833       0.03678565      -0.07559073      -0.01366475      -0.00324547       0.08021097      -0.08581594      -0.38797855       0.65604741       1.09601780      -4.71866740
C        0.32829139       2.01433587      -0.85596055      -0.74459875      -1.46214128      -1.36360633      -0.02299671      -0.35349752      -0.06872192      -0.12283941      -0.14221979      -0.41965870      -0.02439755      -0.03163463       0.00981753      -0.11645621      -0.78707636      -1.49114932      -1.30234871      -4.94003303
C       -0.65128541      -1.73454618      -0.97605193      -0.24183166      -1.93805850      -1.05219197      -0.01699210      -0.62182959      -0.14779174      -0.17430919      -0.08325228      -0.22666124       0.04259836      -0.10599102      -0.01111796      -0.19397035      -0.20051939      -1.88764346      -1.01859125      -5.12078952
H        2.24627304       2.41689706       1.95199585      -0.70873964       1.51380908       1.32802415      -0.07386882      -0.08470685       0.01437255       0.01065161       0.02109540      -0.05505240       0.01918261       0.05775263       0.03730853       0.00675265      -0.66677597       1.52455487       1.25414323      -4.19313802
H        3.87927103      -1.42806661       1.70329547       0.12353803      -0.72178972       0.16360956      -0.06268176      -0.10780588      -0.02405845      -0.02883637      -0.00268540      -0.07712354      -0.00922322      -0.01748958      -0.01881261      -0.05436780       0.14244743      -0.68699680       0.17387257      -4.24756552
H        3.04222202       0.35160416       3.37680769       0.39020196      -0.39342001       0.95932674      -0.21603628      -0.23478531       0.01162942      -0.01748322       0.01374532      -0.24370114       0.00453518      -0.05558296       0.01500589      -0.42113364       0.35692083      -0.41990137       0.95324280      -3.66452773
H       -1.27722096       1.24059510       1.03157485       0.37122345       1.38942969       0.88842225      -0.12254813      -0.23321218       0.11272426       0.04246154       0.18869779      -0.58824835      -0.13003949       0.00673565      -0.03512622      -0.16561932       0.38654432       1.24384588       0.77277284      -3.80405709
H       -0.55290800       0.50506383      -2.14560080      -0.13947076      -0.05935128      -0.72341532      -0.19508606      -0.33548299      -0.06680794      -0.07685752      -0.03587346      -0.18912059      -0.03079964      -0.06649490      -0.07185882      -0.29331059      -0.17494876      -0.02589203      -0.69343973      -3.65869335
H       -2.36941528      -2.93730640      -0.64533943      -0.08846384       0.50783354      -0.06300217      -0.21443430      -0.19839131      -0.12717636       0.00653641       0.00085469      -0.26421632       0.01097646      -0.00400464      -0.00801147      -0.22612589      -0.05263582       0.47480275      -0.09291587      -3.55832010
H        3.00083685      -0.72574937      -0.69395572      -0.12734638      -0.61336166       1.05070484      -0.16334552      -0.31855840      -0.21295635      -0.10162317      -0.10155829      -0.59486299      -0.24044164       0.05823736      -0.23243659      -0.41344467      -0.10638668      -0.58495823       1.15227129      -3.82612384
H       -4.40554714      -2.59510875      -2.69223404      -0.87763375       0.51727366       0.63559991      -0.04638651       0.04530680       0.02556848       0.01890745       0.09486377       0.06526263       0.09209235       0.07218816       0.08938966       0.04948399      -0.88770940       0.53384774       0.65277628      -3.92813283
H       -4.88739824      -0.94304866      -2.19350195      -1.03771996       2.44341159      -1.64694118      -0.04860674       0.06990751       0.00111008       0.02903241      -0.05914803       0.02475317      -0.02930120       0.01715622      -0.00818493      -0.01189965      -1.03266730       2.43557184      -1.64646972      -3.85869719
H       -4.73976135      -1.96579790      -1.00129628      -0.04226359      -1.19878924       0.89231819      -0.04804854      -0.02905848      -0.01753948      -0.05377904       0.00725677      -0.01714494      -0.01487982      -0.02715155      -0.02785075       0.06552290      -0.03730260      -1.19486002       0.87475002      -3.93274377
H       -0.50791085       2.73077345       3.18514395       0.20136493       0.22787091      -0.01825362      -0.04881272       0.02734734      -0.00677598       0.05615830      -0.00478745      -0.01886824       0.01570918       0.02981036       0.00236245       0.04641606       0.15168753       0.23654182      -0.00215137      -3.97205665
H       -1.68711877       3.94005275       2.53485227       0.68597817      -2.23487830      -0.42228687      -0.03637232       0.00059438      -0.06535632      -0.02960930      -0.07709416       0.19083198       0.09642622       0.01120253      -0.00503774      -0.01134871       0.68190015      -2.23120120      -0.45341571      -3.92069865
H       -2.16754675       2.31220150       3.14750576       0.14323922      -0.26238695      -1.14106059      -0.05268998       0.02629204       0.01621289      -0.07306931       0.02464321      -0.00242653      -0.01786543      -0.02600528      -0.06400124       0.02264117       0.14595756      -0.26608379      -1.14392937      -3.98985869
H        2.15529871       1.18428278      -1.64816570       0.09792607       0.12577157      -0.51656502      -0.05324044      -0.01374410      -0.02136380      -0.00497818      -0.00298917      -0.00495238       0.05803570       0.03337683       0.04681549       0.06603665       0.08223847       0.15652921      -0.50404938      -3.96725567
H        2.55152035       2.76543236      -0.79569578      -1.75619233      -1.58719957      -0.46118146      -0.05040161       0.06962908       0.08857457      -0.00506016       0.13585208       0.12823085      -0.02258321      -0.00540839      -0.02333454      -0.01390521      -1.71612774      -1.61026439      -0.46275860      -3.94691876
H       -0.30619353      -2.94229698       0.87075901       0.60078871       0.36156029      -0.85351992      -0.04428411       0.04635840       0.02604560      -0.04641672      -0.00486543       0.00293220      -0.03336385      -0.04516145      -0.06189456       0.13030288       0.55380614       0.35378538      -0.84043417      -4.01027096
H       -0.16006163      -3.84459615      -0.60523444      -0.30567321      -0.09719060      -0.47737849      -0.05217860       0.02108974      -0.01833452       0.00281380       0.03727225       0.06402237       0.00527867       0.01620660      -0.00679284       0.00191432      -0.26373568      -0.08285750      -0.44141637      -3.98121111
H       -0.01554835       2.52729559      -1.80058801       1.24464560       0.35440394       1.25183332      -0.05702578       0.03445714      -0.09714109       0.06135302       0.00104094       0.04784719      -0.00270477       0.01072772      -0.05767786       0.07167637       1.23595506       0.36640516       1.26834528      -3.95153661
H       -0.18766321      -1.81033158      -1.97670770      -0.27511087       0.68467677       0.54191488      -0.04501384      -0.06797193       0.08297324      -0.01839392       0.01520255       0.01956674       0.00997647      -0.06729551       0.01302359       0.07543589      -0.28134010       0.69102393       0.50639524      -3.98536829
46
Properties=species:S:1:pos:R:3:original_dataset_forces:R:3:LES_q:R:1:LES_BEC:R:9:forces:R:3:energies:R:1 original_dataset_energy=-199.7190399169922 energy=-199.66935338283423 stress="inf inf -inf inf -inf inf -inf inf -inf" pbc="F F F"
O        0.25895429      -2.66838622      -2.36923933      -0.42864794       1.11670125      -1.03382051       0.29906833       0.53391927      -0.17639966      -0.22323853      -0.21716838       1.21182929      -0.18385064      -0.03583645      -0.37305287       0.64613573      -0.45945856       1.13359645      -1.06575269      -4.66823422
O        0.48466486       0.18979949       3.07377100       0.05898514      -4.27451563       1.79976571       0.34327585       0.68489243       0.10940613      -0.28352014      -0.10638053       1.26754387      -0.39251465      -0.10793285      -0.40031143       0.72017505      -0.00086526      -4.44192935       1.87983490      -4.46490540
O        3.10038853       0.11299181      -1.33387220      -0.67905289       0.41606039      -0.14589979       0.28061968       0.77271207      -0.00633352      -0.07467504      -0.08374894       0.40054384      -0.19400775       0.09524899      -0.25030390       1.22505620      -0.70084348       0.44207157      -0.04590701      -4.69630758
O       -1.13756871      -1.18700337       0.96218556       0.25465500      -0.01861280      -0.42585891       0.15371637       0.86056289       0.15454086      -0.27268662       0.09498035       0.55452309       0.00163066      -0.48294541      -0.15879925       1.29762255       0.30614114       0.01218691      -0.20097421      -4.90156590
O       -0.03583190       2.24347806       2.74457836      -0.64052838       0.80764741      -0.57592160       0.39058042       1.08788941      -0.31786289      -0.16553956      -0.12718949       1.49423621       0.16972732      -0.23585800       0.11228548       0.60352368      -0.65236969       0.71670459      -0.56346384      -4.37550900
C        0.17760319      -1.58545685      -2.97176600       2.05316615      -2.10246563       1.17637467      -0.07384756      -0.73558668       0.64257669       0.75180495       0.55787603      -1.68066344      -0.16018084       0.34589537       0.27958170      -0.71772474       1.97485260      -2.03737589       1.18094050      -5.23959322
C        0.66822118       1.22125340       2.50111175      -1.67762721       3.66733384       0.19316956      -0.07976858      -0.86120097       0.45635545       0.67679918       0.46100354      -1.89085434       0.36492925       0.48661098       0.32745191      -0.85645174      -1.60909496       3.94276813       0.07343158      -5.08849106
C        2.98114753      -0.18506017      -0.15199608      -2.25459623       0.89518857      -1.06330323      -0.08511044      -1.41432202       0.35977274      -0.18292625       0.34823555      -0.27266914       0.46454278      -0.29591092       0.43899608      -1.47797484      -2.23849512       0.92981778      -1.10590982      -5.30499408
C       -0.64130187      -0.79293442      -0.08883181       0.35813275       1.23789668      -0.51405632      -0.10133076      -1.40720226      -0.64642393       0.25568781      -0.67192495      -0.51656879       0.33208756       0.34448119       0.34262019      -1.17412708       0.32020744       1.23965868      -0.58245384      -5.22133618
N        3.99378181      -0.61604524       0.53422242       4.19637680      -0.36988717       1.59837854       0.09557514       0.89753419      -0.26680131       0.38616426      -0.15276895       0.25700290      -0.24601541       0.27342749      -0.19112107       0.60349766       4.25547649      -0.38513219       1.53509900      -4.61687088
N        0.54240996      -0.17103904      -0.29139748       0.83855951      -0.08525766       0.79569983       0.10751621       1.03908200       0.40205317      -0.01750754       0.43577938       0.37545728      -0.06332840       0.09952205      -0.06003273       0.38159426       0.77574219      -0.19280736       0.77193682      -4.77997534
N       -0.62156415      -0.60562950      -2.59889650      -2.38998604      -0.98855048       1.77211630       0.09252283       0.66356892      -0.58621734      -0.75764462      -0.31105160       0.89022516       0.47658684      -0.29782279       0.28746436       0.76273081      -2.40665831      -1.07341843       1.57281606      -4.61703648
C        1.16386533      -1.16736603      -4.01700830       0.50443530      -1.66756165      -1.51551628       0.10309026      -0.04601524      -0.00054373      -0.12452109       0.02995529      -0.10866755      -0.11923352      -0.11846371      -0.03918807       0.05991338       0.56297121      -1.69830211      -1.48390789      -4.53643704
C        5.38373375      -0.26403943       0.05761123       0.44738480      -0.88661677       2.06681156       0.05727142      -0.44499098      -0.05320623       0.06538486       0.05334740      -0.17404777       0.04475408       0.02660424       0.03588800      -0.16710362       0.47503934      -0.86013991       2.11958172      -4.66924831
C       -3.64430046       0.14190584      -0.18214250      -0.16292526       1.23746347       2.02014852       0.10631992      -0.13879238       0.02404745      -0.01298656      -0.08325470      -0.08911478       0.02802358      -0.12901751       0.04212657      -0.05945921      -0.08425141       1.21578462       1.98367355      -4.53946919
C       -3.09875536       1.22510862       0.78366214      -1.80184877      -1.11834788       1.27306616       0.10531972      -0.04284485      -0.00501212       0.05818482       0.09654865      -0.04197723      -0.04869459       0.16474019      -0.05564244       0.00152118      -1.81291217      -1.04797063       1.12458953      -4.56331503
C        1.73067236       1.27938938       1.49564290       2.56151319      -1.52331841       0.22049001       0.05050885       0.03659409      -0.08946101      -0.20411243      -0.02732254      -0.10586052      -0.01432202      -0.16005987      -0.00928243       0.07866161       2.39750264      -1.52599159       0.31961087      -4.78857628
C       -2.73445034       0.03328240      -1.37196553      -0.88376147      -1.61212122      -0.82425094       0.07369258      -0.11972935       0.03849609       0.01200962       0.09999069      -0.14749565       0.02486281       0.06665985      -0.00473053      -0.09235438      -0.98805340      -1.61184125      -0.72918178      -4.79330089
C       -3.35530186       0.93468934       2.26825666      -1.25909317      -0.39384639      -1.85114324       0.02533812      -0.30986186       0.08822906      -0.12947079       0.07774172      -0.20435499       0.13159809      -0.28085429       0.13323381      -0.17065690      -1.38139240      -0.41078941      -1.92251018      -4.67198127
C        1.68075943      -0.00459248       0.67753214       0.20028560      -1.20895374      -1.64814973      -0.00433138      -0.12491024      -0.11533460      -0.23809927      -0.21029245      -0.26377073      -0.08516843      -0.36072845      -0.10699979      -0.11679501       0.10500036      -1.13182500      -1.81654050      -5.00665562
C       -1.47967100      -0.84941018      -1.38742614       0.28702879       0.23351693       0.28021803      -0.01753719      -0.30941211       0.10151356       0.23517870      -0.02598062      -0.24160797      -0.11197752       0.11374264      -0.02353304      -0.35871629       0.28708739       0.31094653       0.20696081      -5.01932375
N       -2.19480014       0.35341054       2.89473748       0.21888645       1.10174119       0.49128002       0.03335895       0.60978042      -0.12404428      -0.18192768      -0.08226942       0.28902191      -0.05164057       0.02792357      -0.03955619       0.48746039       0.36490888       1.15960061       0.60576965      -4.26041807
H        3.88672423      -1.07636762       1.42908978      -0.04445731       0.53779107      -0.22528382      -0.21345207      -0.23102582       0.00614153      -0.00305587      -0.05047438      -0.20833320       0.01254622       0.00529702       0.01840067      -0.25910373      -0.01755411       0.52908642      -0.18997912      -3.59688330
H        0.84826559      -0.22983050      -1.26798129      -0.01481994       0.59864855       0.88325763      -0.16800040      -0.06303899      -0.04032424      -0.11511279      -0.00163075      -0.18721225       0.01397711       0.08917441      -0.01654846      -0.30675643       0.32598741       0.65136138       1.04999020      -3.67216416
H       -0.49109530       0.18440270      -3.17040944      -0.81331414       1.47417486       0.13125487      -0.20925300      -0.12762640       0.03405389       0.10262284      -0.04729464      -0.22299356       0.02263918      -0.03305103      -0.00596671      -0.22290375      -0.87078941       1.49990296       0.19139548      -3.53410393
H        1.49137616      -0.10423785      -3.96588016      -0.28440234      -0.93937480      -0.09663256      -0.04851915       0.00351601       0.02497263      -0.05481742       0.04809758       0.11213497       0.00327067      -0.01749140      -0.01635649      -0.08925994      -0.30951004      -0.95393073      -0.12612116      -4.01341788
H        0.68109804      -1.45040345      -5.00529528       0.75494957       0.72531837       0.87327027      -0.04763671       0.00752351       0.01586479       0.05524676       0.00430013       0.00019798       0.07250278       0.01011510       0.01252058       0.10653479       0.78420842       0.74061260       0.86775266      -3.96027502
H        2.00653386      -1.89787269      -3.88122892      -0.55736697       1.13219774      -0.28402132      -0.04186548       0.04926631      -0.02259432      -0.00974197      -0.07659916       0.02170204      -0.00211502       0.00236442      -0.03319832      -0.02723189      -0.55403709       1.11266228      -0.29554808      -3.92662044
H        5.48997784      -0.55504632      -0.93457103       0.07175294      -0.74655288      -1.65609050      -0.04046078      -0.00419054       0.02410738       0.00217026      -0.07135659      -0.00213376       0.00417071      -0.08449813       0.01623676       0.06224684       0.04709264      -0.74042954      -1.69892626      -3.93887283
H        5.64406633       0.78989881       0.05936450      -0.71185392       0.31479535       0.37302595      -0.04861980       0.00709419       0.02087732      -0.01220276       0.09789229       0.05207656       0.00059541       0.03659079      -0.01954452      -0.01598800      -0.69063444       0.27536491       0.35828895      -3.97831394
H        6.21808434      -0.75613129       0.65359360      -1.51794910       0.28515789      -0.49829760      -0.04686070       0.18043952      -0.02686643       0.02979844      -0.05973425       0.00107540      -0.02796538       0.01786643      -0.02484562       0.00718368      -1.51590163       0.29270422      -0.48275113      -3.95125012
H       -3.78084135      -0.75454646       0.42268574      -0.18897954      -0.24066654      -0.62679899      -0.05647386      -0.07448650       0.01245072      -0.01394869       0.01393413       0.08463159      -0.04654153      -0.00959058      -0.06144898       0.08667140      -0.18994024      -0.21469876      -0.63886034      -3.98874420
H       -4.59879732       0.66288584      -0.40621436       0.21442789      -1.45034218      -0.69145954      -0.05873216       0.10071025      -0.04650816      -0.02581560       0.00666203      -0.00434193       0.00276012       0.03236081      -0.00520026       0.00221604       0.23674650      -1.43658511      -0.66197577      -3.86937255
H       -3.68041539       2.10057759       0.62188834       0.38627577       1.11520970      -0.62175852      -0.06502946      -0.03521930      -0.04266834       0.02767826      -0.04344335       0.05855139      -0.01973324       0.01847187      -0.02400871       0.02007717       0.31338891       1.09267228      -0.57490968      -3.88901288
H       -2.08228135       1.28494048       0.62129003       2.10319972       1.04465616      -0.18895204      -0.05038963      -0.03286510       0.09832642       0.00320421       0.05874605      -0.04712471       0.02429623      -0.09084474       0.06632456       0.01569962       2.12314078       0.98956719      -0.21021779      -3.92181118
H        1.97103095       2.14684033       0.95956820      -0.84929127       1.34392965      -1.09125435      -0.05919285       0.01003276       0.05001491      -0.02813740      -0.03928763       0.06896182      -0.07973651       0.02898849      -0.00756405       0.06291609      -0.80065667       1.33488665      -1.12828538      -4.01468775
H        2.66458225       1.23493576       2.11251044      -0.52300197      -0.49538434      -0.33650994      -0.04540304       0.13068113       0.05545606       0.08739483       0.05551916       0.03976206       0.04425516       0.02687466       0.00753802       0.00674836      -0.46706903      -0.50420973      -0.31982133      -3.87182608
H       -3.38352180      -0.33695289      -2.16843796       0.41748309       0.16757581      -0.38227323      -0.05860196       0.05492570      -0.00114342       0.05015098      -0.03278553      -0.01710011       0.01638657       0.07448291       0.03030421       0.07554221       0.42419443       0.18385998      -0.39918639      -3.93343253
H       -2.45096540       1.01310849      -1.57514977       0.51221007       1.77774823      -0.80283153      -0.05932875       0.06640594       0.01265515       0.03417233      -0.01893872       0.06894322      -0.05834548      -0.04450482      -0.00479731      -0.03282939       0.50445268       1.77454535      -0.78516179      -3.89835298
H       -3.57669067       1.82716584       2.82623720      -0.25577176       0.31338593       0.08540640      -0.06413982      -0.08188636      -0.02806935       0.02390316      -0.04358871       0.04454081       0.02264382      -0.00683902       0.03899767       0.04458638      -0.22126670       0.32142373       0.07352230      -3.93996253
H       -4.23123837       0.24734885       2.28838301       0.62983698       0.39779174       0.47695023      -0.05793796      -0.02921766       0.04782821       0.08326337       0.06912069      -0.00128235      -0.04201390       0.06296959      -0.02540395       0.00284012       0.64368146       0.38624324       0.49794742      -3.90382205
H        1.65983367      -0.84162849       1.36599469      -0.32800132       0.02916512       0.23323251      -0.04453331      -0.03016185       0.03001889       0.04005199       0.04906983       0.03656062      -0.06652651       0.02016604      -0.05197280      -0.00293115      -0.41875472      -0.05010703       0.22014263      -3.94749543
H       -1.79221869      -1.88146567      -1.33428192      -0.02722966      -0.31298468      -0.77508038      -0.05215470      -0.00514906       0.02607409       0.04086070       0.05078026       0.07169923      -0.02291776      -0.01001143      -0.03095040      -0.03933780      -0.03566404      -0.38169808      -0.69639101      -3.94254901
H       -2.56146765      -0.08991134       3.70087504       0.68482971      -0.49494171       1.31590998      -0.20256746      -0.24490250      -0.01585722       0.02082202       0.03777259      -0.24035245       0.03082656       0.02722461       0.05313744      -0.34919038       0.71268075      -0.46378013       1.30193725      -3.31117703
H       -1.64578581      -0.29335150       2.34355807       0.23942402      -0.79467314      -0.64579737      -0.09921964      -0.33481192       0.09577714       0.21223273       0.11096378      -0.30651622      -0.24136256       0.21003805      -0.21353261      -0.56883419       0.18944321      -0.81077529      -0.71534243      -3.61342016
H       -1.50890708       1.13729668       3.07563877       0.29764366      -0.24719582       0.46004903      -0.13397117      -0.54768005      -0.31993820      -0.12309847      -0.27383081      -0.42617782      -0.03142127       0.09441963       0.01078493      -0.25542473       0.29622603      -0.31429154       0.50485754      -3.46947894
42
Properties=species:S:1:pos:R:3:original_dataset_forces:R:3:LES_q:R:1:LES_BEC:R:9:forces:R:3:energies:R:1 original_dataset_energy=-189.50729370117188 energy=-189.48761831382606 stress="-inf -inf -inf -inf inf inf -inf inf inf" pbc="F F F"
O       -0.19314408      -0.25448725      -4.81745291      -0.35627836       1.77362704       1.48705888       0.30528140       0.34542821      -0.11636187      -0.09910880      -0.09696166       1.12129066       0.51593536      -0.01347618       0.12203501       1.04798496      -0.34907076       1.64298555       1.45264380      -4.62691502
O        2.89740205      -2.26538658       1.29075360       0.81526721      -0.74260384      -0.47626469       0.38762844       1.12088508      -0.18537264      -0.31845791      -0.21139601       0.84511836       0.29258478      -0.53750263       0.19487042       1.07202517       0.85046497      -0.80959341      -0.56710664      -4.53157235
O       -1.22985959       0.18595105       2.31404209      -0.32566404      -1.44536614      -0.59333992       0.24579577       0.93635389       0.60716293       0.24547241       0.25423655       0.91498422       0.61071135      -0.05431964       0.35645642       0.72529848      -0.24924907      -1.39203566      -0.55308160      -4.78594291
O        0.08256918       2.10769391      -0.63769639      -0.94426543      -0.03394582      -0.13791205       0.27163070       0.38119341      -0.03824271       0.18563907      -0.20539821       1.27514084      -0.21560851       0.15284802      -0.00466772       0.78159724      -0.98758216      -0.03904622      -0.20711967      -4.66861900
O        1.27000070      -2.37115288       2.80612087      -0.57443088      -0.67545855       1.11182606       0.35389197       1.09025476       0.39754372      -0.51818089       0.31394747       0.95798257      -0.30420252      -0.26261705      -0.09106734       0.89907630      -0.56593343      -0.66360395       1.16853032      -4.57827331
C       -0.37899458       0.91702640      -4.39684010      -0.36655027      -4.02547550      -0.94533324      -0.08065785      -0.10895445       0.11543832       0.16701087       0.15381453      -1.27475074      -0.37857067      -0.00594902      -0.13194387      -2.36168495      -0.37073775      -3.82546739      -0.76539071      -5.13364359
C        2.19429064      -1.81645477       2.20186043      -1.41854024       2.15418124      -2.21508026      -0.05740090      -1.22336384      -0.20181943       1.09474497       0.02447995      -1.36828155       0.07732195       0.97698978      -0.05010935      -1.18511600      -1.37720275       2.26015361      -2.15120729      -4.96271701
C       -0.20219383       0.79881859       2.47152090      -0.81903416       2.14310670       1.20596361      -0.10255299      -1.12266484      -0.50487014      -0.03289860      -0.36190821      -1.19140482      -0.88313506       0.13072554      -0.71709731      -0.92138801      -1.04134032       2.07918278       1.24744811      -5.30827047
C        0.14769286       0.88913512      -0.69746089       1.86603761       0.89165866       0.91172111      -0.11266217      -0.41157430       0.25583125      -0.53162586       0.33528849      -1.51753516       0.34780786      -0.45706628       0.06465278      -1.08535799       1.82671174       0.89753620       0.87478048      -5.17467020
C       -1.52966714      -1.96593380       0.41778287       0.35287550      -0.89637071      -2.60771513       0.00999129      -0.07290807       0.14111186      -0.02634005       0.01287153      -0.11946192       0.04253061       0.20160125      -0.11835923      -0.03481731       0.26980518      -0.79902057      -2.67403950      -5.35325723
C       -1.07777107      -1.96094489      -0.90820682      -3.35986423       4.56230927       0.39165407      -0.03741536      -0.12129264       0.14435910       0.08002238       0.14677286      -0.11392922       0.06106572      -0.07238761       0.08027869      -0.23282390      -3.30310635       4.64175511       0.48748675      -5.36188520
C        0.24328399      -3.27831292       0.13165954      -0.81314290       0.45416516       1.38526261      -0.11240098      -0.22947251       0.10735608       0.06383802      -0.04742570      -0.22087828       0.03377368       0.05092373      -0.07553383      -0.58021230      -0.74043277       0.45229592       1.62507969      -5.53920456
N       -0.73651248      -2.87274218       0.99412513       2.49590397      -1.22408676      -0.44108397       0.01621347       0.14369531      -0.21005535      -0.11394526       0.05372490       0.18734971      -0.07953345      -0.13720095       0.13205915       0.38674517       2.55722626      -1.33253528      -0.50029004      -5.10371494
N       -0.18994060       1.84101558       3.35795975       1.92045498      -0.09511805      -0.15042368       0.14156458       0.45570396      -0.14374308      -0.35217524       0.15348484       0.77016577       0.52014481      -0.03881333       0.57827760       0.78405345       1.99998232      -0.05305509      -0.10194185      -4.60585301
N        0.81094557       0.22330755       0.31503037       0.03085201      -1.60072970      -0.67461544       0.14047241       0.43927833      -0.22019645       0.36136067      -0.12665727       0.52899141      -0.10047425       0.26060094      -0.27127186       0.95824210       0.14659662      -1.64979828      -0.51479258      -4.61144460
N       -0.41816106       1.20639145      -3.05744910      -0.33197549       0.03636732       0.80079436       0.13327214       0.20139053       0.05780486      -0.06748195       0.03554313       0.51294222       0.00713929       0.01164501       0.10075908       1.74784689      -0.27741233      -0.06695554       0.68161113      -4.70084242
N        0.01767820      -2.67618465      -1.04479635       2.35129404      -2.12058544       1.20044792      -0.01817198       0.21023729      -0.10339480      -0.09311983      -0.09897618       0.23024387      -0.12468978      -0.14283308      -0.16641934       0.52335812       2.21640256      -2.08876592       1.03595303      -5.09785083
C       -0.51482344       2.00190163      -5.41137028      -1.68291199      -1.29151630      -0.63209772       0.08780038      -0.12349356       0.03998105      -0.06053472       0.02807697       0.03949559       0.01079465       0.00749271      -0.12690266       0.02082186      -1.65013972      -1.25548079      -0.62217976      -4.59482286
C       -1.17330801       2.28534150       4.32506371      -1.54797447      -0.24726991      -1.78341389       0.06089435      -0.31328492       0.11667290       0.28383488       0.04547603      -0.15921941      -0.02594499       0.21609304      -0.13081429      -0.41440616      -1.57424565      -0.20472857      -1.82779504      -4.70149071
C        2.21957946      -0.22522819       2.33230591       0.47752914      -0.30658782       1.35954499       0.11455631      -0.09775941       0.00335585      -0.11378799      -0.10749710       0.32551465      -0.10795828      -0.18720414       0.03594805      -0.14418972       0.46809488      -0.35102356       1.33643355      -4.43671451
C       -1.42717481      -0.81500530      -1.79720235      -2.57432675       1.55366409       0.29314131       0.03698983      -0.12944728      -0.04968626      -0.00016395      -0.06280785      -0.05067028      -0.06734266      -0.06495057      -0.10304439      -0.16303733      -2.33691460       1.37525878       0.33891708      -4.82011672
C        1.09347200       0.69547725       1.69606209       1.26941788      -0.93791515      -0.62720323      -0.03045418      -0.13074688       0.04910319      -0.17022652       0.07116912      -0.17653024       0.04214718      -0.12815365       0.00324401      -0.48318591       1.29182359      -0.95861657      -0.83193693      -5.08950190
C       -0.29413691       0.16014719      -1.99505293       2.30106425      -0.23896438      -1.25783110      -0.02779071      -0.22563485      -0.00666953       0.01965975       0.03807751      -0.22946710       0.25188890       0.04283455       0.27560745      -0.45306002       2.23285059      -0.07894511      -1.29785029      -5.00933421
H       -2.29154611      -1.41248560       0.93265748       0.08037386      -0.01479200      -0.15948299      -0.06132028      -0.09046699      -0.06515867      -0.04235140      -0.04666443      -0.12912576      -0.04036873       0.00790010       0.03842957      -0.06009429       0.12104029      -0.05404294      -0.16192240      -4.18883662
H        1.12420774      -3.80696416       0.42166403       0.24242094      -0.19177374       0.12146806      -0.05468245      -0.10559025      -0.00700191      -0.02696657      -0.03682185      -0.08511438      -0.04398818      -0.03266119       0.00030869      -0.06197890       0.20460729      -0.18621706       0.11887676      -4.25079292
H       -0.54228210      -2.94556856       1.97620296       0.18410654      -0.14869219       0.74408072      -0.18456368      -0.41933920      -0.07928438      -0.07758462      -0.04158929      -0.29824800       0.02073577      -0.09541378      -0.02440389      -0.43924102       0.17903806      -0.15572556       0.73132733      -3.72121522
H        0.63595051       2.44545603       3.26905107      -0.80822229      -0.53083283       0.38210031      -0.20926122      -0.23257629      -0.04092190       0.01214183      -0.06349960      -0.24609579      -0.03449924      -0.03626262      -0.01558922      -0.24729107      -0.81477978      -0.53688715       0.40590559      -3.53534869
H        1.18327737      -0.71817058       0.10991898      -0.45951054       0.91190070       0.38849303      -0.19776824      -0.19091425       0.03732577       0.01448893      -0.00126703      -0.21614696       0.06187635       0.05673470      -0.01324646      -0.12931372      -0.52085648       0.81899893       0.37271977      -3.69032177
H       -0.27888003       2.16925073      -2.70722222      -0.37830031      -0.97917408      -0.27496353      -0.18660143      -0.18396979      -0.00666744       0.02277146      -0.00955532      -0.24498821      -0.01884444      -0.02382496      -0.01080618      -0.24587455      -0.37546028      -0.94542191      -0.25314736      -3.67407519
H        0.79505521      -2.59934664      -1.70771265      -1.02326822      -0.14968194      -0.05916603      -0.22083837      -0.30096658      -0.04056206       0.04839892       0.00388323      -0.31309803      -0.00423104       0.07253198       0.03412462      -0.33248199      -1.00442275      -0.10932188      -0.07200465      -3.57599783
H        0.28416675       2.50194073      -5.04521656       2.54140925       3.02022433       0.19385654      -0.05451483       0.01752376       0.06753652      -0.04685692       0.01372331       0.09652999      -0.19882977       0.02876743       0.01074940      -0.00938662       2.49461655       2.97821747       0.19391300      -3.80601299
H       -0.31377175       1.64430547      -6.44871998      -0.32349464       0.13710959       1.15473628      -0.04142952      -0.01562168      -0.01479719      -0.01064446      -0.01247294      -0.00457088       0.01781222      -0.00186242      -0.03982979       0.23863661      -0.32334408       0.14109901       1.12994392      -3.96098619
H       -1.44219780       2.57267427      -5.32359886       0.30136594      -0.04414884       0.00115862      -0.05324605       0.05434321      -0.07690462       0.05987684      -0.06945143       0.04408999      -0.08852761      -0.00829774       0.00601053      -0.01906550       0.29828866      -0.03395366       0.00632128      -4.01264278
H       -1.39956653       3.29990315       4.02154636      -1.07318401       0.07003686      -0.14197870      -0.04937375       0.03241120      -0.05883243      -0.08321856      -0.06887245       0.05040833      -0.03354684      -0.02045672      -0.01047541      -0.00322052      -1.06109209       0.05005221      -0.14190096      -3.91460291
H       -0.77036887       2.43732500       5.24777555       1.72478807       0.00188544       2.60868311      -0.05530086      -0.00165329       0.02229068       0.04396833       0.00655384      -0.04786915      -0.02895317      -0.03037671       0.02018383       0.08308545       1.73764207      -0.00270070       2.61022948      -3.89185401
H       -2.06085515       1.63282084       4.55086946       0.93551683       0.58831525      -1.19843578      -0.04265295       0.07099222       0.00161467      -0.08533534       0.06657365      -0.02311736      -0.06115908      -0.02577484      -0.01987017      -0.03022611       0.90439592       0.57133797      -1.18776147      -3.97393075
H        3.15225744       0.22456568       2.00318456       0.12880535      -0.47871953      -0.50472015      -0.05066373       0.12381446       0.02664945       0.01670516       0.03547473       0.05051642      -0.01935886       0.00954737      -0.03187169       0.01924616       0.13567472      -0.51043768      -0.47629805      -3.96443409
H        2.32665348      -0.16063768       3.42928147      -0.83150774       0.79122597      -0.28146797      -0.05226879       0.04400145      -0.03760183       0.07899202       0.04831532       0.00096017       0.07225971       0.04650254      -0.00475573       0.13150178      -0.82081467       0.79832549      -0.23939258      -3.96227418
H       -1.97212648      -1.03295732      -2.70596528       0.63833159      -0.43457556      -0.54571891      -0.05632784       0.03700651       0.06052833       0.09563165       0.00901042      -0.02353500      -0.02449383       0.10157152       0.06019311       0.12928825       0.57561918      -0.41368595      -0.55058598      -4.03215086
H       -2.18941641      -0.19476068      -1.28491056       0.08006132      -0.69465774       0.19540156      -0.05553966       0.07459541      -0.01689476       0.00274473      -0.07057237      -0.02954867       0.01299599      -0.00400008       0.03082573      -0.00244697       0.00471296      -0.64062326       0.15588030      -3.90491364
H        1.64086390       1.66506672       1.69592142      -1.00239038      -0.40492779      -0.35900491      -0.05706280       0.04409711       0.00842903      -0.00428789      -0.06322272       0.06187505      -0.07270525       0.03443330       0.00919205       0.08104131      -1.01094046      -0.36849584      -0.34226422      -3.95110058
H        0.50735027      -0.53278947      -2.32548809       0.27258283       0.86574078       0.13001874      -0.04621117       0.02848966      -0.03505613      -0.02200958      -0.04748074       0.06998695      -0.04255997      -0.02833829       0.00387352       0.01005149       0.23948384       0.81898648       0.06600822      -3.96160181
46
Properties=species:S:1:pos:R:3:original_dataset_forces:R:3:LES_q:R:1:LES_BEC:R:9:forces:R:3:energies:R:1 original_dataset_energy=-202.10911560058594 energy=-202.10959969396765 stress="inf -inf inf -inf inf inf inf inf -inf" pbc="F F F"
O        4.16180897      -2.41767812      -0.81886500      -0.42207068       0.43780228       0.21378288       0.28493738       1.35162873      -0.06477485       0.13936483       0.17372829       0.65305724       0.26184820       0.34101879       0.19724125       0.50969562      -0.42609591       0.43230248       0.21427923      -4.69307138
O       -1.26536679       3.93431139       0.16684431      -0.41452673       0.35734129      -0.74511051       0.39043808       1.08745914      -0.55627199      -0.05628094      -0.45948586       1.02780485       0.15511239      -0.34877445       0.51166303       0.96813718      -0.41008388       0.34306076      -0.76663062      -4.39111477
O       -2.06401563       0.96472669       0.71228898      -0.33631822       0.01474765       0.70300281       0.17541911       1.15729762       0.10644031       0.39267644       0.18869691       0.34152160       0.14039838       0.70488575       0.23626048       1.37331660      -0.34341268       0.01193346       0.75593334      -4.84474233
O       -0.75735700      -1.61586308      -1.49347568       0.87614411       0.11880306       0.41301095       0.28394949       0.85742306       0.40190699       0.25987056       0.10067754       1.11199086       0.15099766       0.19528763       0.20629238       0.49279991       0.89258445       0.15474604       0.42869247      -4.70033101
O        0.63824600       2.94336748      -0.16541490       1.41148531      -0.49908674      -0.64044315       0.29455423       1.28868553      -0.38302458       0.04298963      -0.26471072       0.84068817       0.05925101       0.34033262      -0.09837546       0.97873264       1.46525273      -0.52607127      -0.63743468      -4.64888791
C        3.16528559      -2.89276385      -1.33799624       1.35862827      -0.87835139       0.10192275      -0.06062444      -2.19114651       0.51224403      -0.09531017       0.28081656      -0.96716215      -0.50894487      -0.28739775      -0.41967132      -0.37848569       1.43296817      -0.87187032       0.07448302      -5.35665086
C       -0.49927944       3.28822327      -0.57698298      -1.26287234       0.02125134       1.98444605      -0.08741382      -1.78825172       0.89886830      -0.13276070       0.60414228      -1.09388898      -0.45111865      -0.05688866      -0.56953198      -1.08354604      -1.35172803       0.04918371       1.97909324      -4.99296250
C       -2.37723708       0.90816665      -0.46118701       0.01033018      -0.84712607      -1.09016204      -0.09758408      -1.79139219      -0.29658768      -0.33466021      -0.49577749      -0.23712955      -0.15512040      -0.46811458      -0.15885651      -1.38225802      -0.04752787      -0.82497872      -1.14370111      -5.32622104
C        0.11624992      -0.82597530      -1.11328518      -1.27029836      -0.28300858      -0.61429089      -0.08358645      -0.94500361      -0.25345331      -0.47498846      -0.00215249      -1.74888685      -0.06196325      -0.33941023      -0.09697776      -0.27494837      -1.27080781      -0.36129088      -0.62683660      -5.29615553
N       -3.59458065       0.53199697      -0.90722060      -0.09106486       0.49971420      -2.09182382       0.11421105       1.26267453       0.22915180       0.28213773       0.38653318       0.19610531       0.11325669      -0.00853149       0.05225967       0.51833974      -0.11584757       0.49021227      -2.08594319      -4.66268619
N       -0.05937700       0.49723330      -1.20952165      -0.31988522      -0.08413296      -0.08663700       0.12373247       0.57741169      -0.28910565       0.10722390      -0.12349644       1.24385743      -0.04643446       0.10638322      -0.18014849       0.29776612      -0.25965049      -0.00254194      -0.02955060      -4.80333499
N        1.92271471      -2.39462185      -1.27675807      -0.20190570       0.19428086      -0.64779097       0.10035823       1.35961210      -0.57714166      -0.15432533      -0.71402896       0.79584883       0.29082910      -0.18119262       0.24835127       0.40209149      -0.25219719       0.27992881      -0.62146363      -4.79096527
C        3.25567150      -4.22081184      -2.09894705       0.83250993       1.21322191      -0.48923302       0.11258261      -0.00125262      -0.04170922      -0.01154956       0.01498703       0.06350194       0.10809514       0.01059096       0.10371473      -0.05259222       0.83243181       1.21823075      -0.48541595      -4.64800377
C       -4.76534271       0.22861925      -0.12735474       1.21998918       0.68279558       1.73085558       0.05985929      -0.53430742      -0.05798195       0.13319297      -0.00980770      -0.15257470       0.04438246       0.13546272       0.04700236      -0.20966305       1.21764437       0.64696760       1.72723369      -4.84704369
C        0.69608170      -0.78144157       1.93093133       0.25325823       0.42209229      -0.84873450       0.08826222      -0.11275098      -0.00790213      -0.05076171      -0.01090008      -0.09274204       0.04247999      -0.07753567       0.05381510      -0.09400713       0.22845138       0.42176431      -0.93171992      -4.75120162
C        1.54564452       0.52609682       2.01164794       0.12040017      -0.72964740       0.05250734       0.09118239      -0.08903010      -0.09174841      -0.12118554      -0.06527743      -0.03580615       0.00954103      -0.02271666       0.01062616      -0.12944542       0.07713557      -0.77913172       0.05552587      -4.70793730
C       -1.07669592       2.62575793      -1.81273043       0.35600314       0.60952342      -1.69982505       0.05582543      -0.01505802       0.07026874       0.10459330      -0.04106776       0.12655667       0.06240636       0.02023329       0.21211176       0.02155341       0.38905939       0.63478926      -1.70629501      -4.80991824
C        1.15899992      -1.84937561       0.92480087       0.04715019       0.38107350       0.22555824       0.10304655      -0.07520676      -0.05449890       0.08905472       0.02476091      -0.12313605       0.01204444       0.06605563      -0.02170564      -0.10368301       0.10295382       0.39219726       0.25698955      -4.69024558
C        0.96017283       1.61449933       2.91322303      -0.23976870      -0.98414642       0.29521158       0.01212874      -0.40041492       0.18788606      -0.04622055       0.14346721      -0.26444329      -0.01743438      -0.07815442       0.05131005      -0.20363792      -0.16189611      -1.03303712       0.30709074      -4.78669116
C       -1.33416653       1.13758981      -1.58443511       1.03912723      -0.07098483       0.92508811      -0.01972735      -0.36391329       0.21487297      -0.15940837       0.20512675      -0.35473686       0.09357760      -0.15578384       0.18703141      -0.16348900       1.02524878      -0.04857455       0.89400972      -5.17201936
C        1.42802048      -1.29390609      -0.48034376       0.08519902      -0.17261979       0.10884339      -0.03506819      -0.21046098       0.16459533       0.19344744       0.18661038      -0.44269523      -0.11662374       0.22405709      -0.12708869      -0.30273841       0.06313693      -0.23542065       0.12568162      -5.15582454
N       -0.22202128       2.28642678       2.28161287      -0.03113860      -1.14272451       1.25810087       0.02614905       0.36960114       0.00074483       0.14323706      -0.09910479       0.34211468       0.05348418       0.00011916       0.16602134       0.48164067       0.02432976      -1.10378178       1.23088367      -4.29474546
H       -3.73624754       0.42599848      -1.92217016       0.60277385       0.18619196       1.06677473      -0.21252498      -0.23391177       0.01981035      -0.03454526       0.00716737      -0.21435055      -0.00629750      -0.04232911      -0.00828764      -0.29223598       0.60676040       0.21705474       1.05468390      -3.54714500
H        0.66146582       1.08761048      -0.84014332       0.01035569       0.73951262       0.07826696      -0.17831479      -0.18667936      -0.11066506       0.00157641      -0.06054862      -0.39935605      -0.11550574       0.00783587      -0.12915578      -0.21367530       0.01354347       0.66171311       0.04360630      -3.70325218
H        1.24823570      -2.90327787      -1.80937982      -0.58484364       0.01664833       0.01558586      -0.19403931      -0.24245995       0.01557351      -0.00594256       0.02729792      -0.30465588      -0.06559101      -0.00609287      -0.06266484      -0.23814375      -0.60973227       0.02697407       0.01009129      -3.58546950
H        2.94848752      -4.07669258      -3.12862086      -0.01347298      -0.08840510      -0.19073845      -0.04933295      -0.00165013      -0.01660650       0.02958948      -0.01051470       0.00820231       0.00584610       0.01716957       0.01964654       0.09064769      -0.02174680      -0.08857044      -0.20207492      -3.98055068
H        4.25810575      -4.63475180      -2.05998230       0.11565201       0.40094933      -0.07047976      -0.04305580       0.07522596      -0.05597244      -0.00904037      -0.07797219       0.07054349       0.03517916      -0.01408876       0.03202760       0.00070493       0.10899857       0.39652943      -0.05852486      -3.95471360
H        2.63827920      -4.93348598      -1.65389848      -1.28069496      -1.10740972       0.68681657      -0.05238856       0.02210290       0.04108170      -0.02533947       0.04530687       0.04554253      -0.01381547      -0.00948547      -0.03592774      -0.00746588      -1.28323088      -1.11865011       0.68742906      -3.95332891
H       -4.67723703      -0.79845262       0.18144047      -0.50797176      -0.46972799       0.19698963      -0.05246279       0.01088273      -0.00441380      -0.01993016       0.07400278       0.05741981      -0.03986182      -0.06008632      -0.03266847       0.00193460      -0.51706957      -0.46345466       0.21579327      -3.97255670
H       -5.67581320       0.44000068      -0.65342045      -0.23391354       0.01822473      -0.30176958      -0.05717217       0.14540085       0.00074134       0.00045857      -0.07658985      -0.02701070      -0.01570267       0.02438543      -0.00374204      -0.00856960      -0.23122949       0.02496773      -0.31539073      -4.00394682
H       -4.69163465       0.86202347       0.77878940      -0.38556355      -0.43118349      -0.40585572      -0.03673961      -0.02756672       0.02583991       0.01585316      -0.03905204       0.00643389       0.03524709      -0.07028037       0.02076607       0.05691046      -0.37105386      -0.44750064      -0.40428099      -3.94878405
H        0.68237489      -1.24000466       2.89338994      -0.09073988      -0.23447426       0.83656013      -0.06409072      -0.02352537       0.02393041      -0.02659944       0.01077120       0.03785500      -0.02797220      -0.01326349      -0.01694902       0.09392285      -0.09991374      -0.22849387       0.83536845      -3.95328674
H       -0.32114014      -0.57551640       1.65333319      -0.56798571       0.45114294       0.07969041      -0.04399285       0.06237854       0.00426796       0.00252405       0.02348804      -0.01667252       0.03549939       0.00390495       0.02103002      -0.01270738      -0.56102772       0.47394951       0.12134466      -3.99458612
H        2.53735924       0.22937468       2.39983916      -0.39131418       0.36587256      -0.12981142      -0.06002467       0.11658170      -0.03739374       0.03159096      -0.03041359       0.04035494       0.03039124       0.01767193       0.00811372      -0.02145424      -0.35752611       0.36845466      -0.09107839      -3.95930564
H        1.70680785       0.98300612       1.04616845       0.06829581      -0.04354745      -0.26679555      -0.04644374      -0.03655871       0.02316528      -0.04402180       0.06110683      -0.00804287       0.00454041      -0.04084073      -0.01111562       0.07420536       0.05401804      -0.03854642      -0.30494124      -3.96964935
H       -2.02654982       3.08747530      -2.10287285       0.22689815       0.02906238       0.29728365      -0.05459949       0.07916141      -0.06674620       0.06745459      -0.03650454       0.03870473      -0.00052258       0.05134742      -0.04594332       0.03775278       0.23115262       0.01487704       0.31488109      -3.99726554
H       -0.39527613       2.75501776      -2.70432186      -0.53536034      -0.32425374       1.01757050      -0.04847627       0.01621435       0.08473644      -0.09556742       0.02156224      -0.00228927       0.01105265      -0.02474183      -0.10905193       0.15443852      -0.54572084      -0.33565468       1.02434565      -3.99003992
H        0.42426342      -2.67936468       0.84771144       0.35154966       0.67754424       0.06185656      -0.04816602       0.01308385       0.10424562      -0.02766935       0.06991378       0.08152127       0.01586219       0.00638032       0.03294504       0.02576398       0.33876968       0.68957652       0.07550657      -3.98484934
H        2.09540844      -2.28579879       1.24499846       0.26224869      -0.12102982       0.11947645      -0.05237756       0.06410092      -0.05934411       0.02613229      -0.05369674       0.04209935      -0.01615178       0.00336033      -0.00005785      -0.00265030       0.23966342      -0.13380681       0.12662675      -3.98339280
H        0.64705801       1.12144244       3.83913350      -0.14167601       0.38320804      -0.04494934      -0.06037296      -0.00595736      -0.03408909      -0.05422272      -0.02124365       0.00202496      -0.05390228      -0.01164026      -0.05099006       0.03676124      -0.14173608       0.37627392      -0.08345029      -3.94789326
H        1.70947576       2.35912323       3.15645719      -0.09398757       0.16805598      -0.12358519      -0.06305690       0.04432991       0.03110799       0.02653005       0.03806894       0.06877681       0.08229058       0.01151080       0.03167606      -0.03948045      -0.11969287       0.18665256      -0.12861725      -3.98037668
H       -1.68855047       0.70734441      -2.49925470      -0.15949723      -0.37605619      -0.40046296      -0.05785617       0.04886170       0.00000402       0.03239488       0.03674109       0.03711128       0.03274309       0.04275293       0.00360582       0.05249712      -0.16058279      -0.39320590      -0.38143941      -4.00600215
H        2.16245651      -0.46829194      -0.42476189      -0.31259632      -0.61778283      -0.24466442      -0.06069984       0.01937995       0.08964998       0.01580032       0.02386406       0.05350009       0.00322982      -0.00515208       0.00711519       0.01631048      -0.27123688      -0.55735644      -0.21773050      -4.00561158
H        0.07765031       2.80874228       1.47060895       0.53504646       0.83122987      -1.33967042      -0.10342343      -0.20470636      -0.02048674       0.10729009       0.00579238      -0.25899862       0.10543896       0.07508023       0.06128577      -0.66494175       0.52278782       0.81458431      -1.29154512      -3.57983515
H       -0.70079702       2.91327667       2.91256738      -0.03734607       0.12762891       0.06113492      -0.19736852      -0.21442902      -0.00530426      -0.02253611       0.03766865      -0.27589805      -0.06515866       0.04290830      -0.10074347      -0.33961987      -0.04317105       0.13551294       0.05459563      -3.35420491
H       -0.91763765       1.62062669       1.89755630       0.13888744       0.15245180      -0.06272317      -0.11686431      -0.33386448      -0.16591155      -0.24211721      -0.09995355      -0.31266168      -0.21690383      -0.12623330      -0.24225916      -0.46648464       0.10702729       0.12950165      -0.10010378      -3.57757892
42
Properties=species:S:1:pos:R:3:original_dataset_forces:R:3:LES_q:R:1:LES_BEC:R:9:forces:R:3:energies:R:1 original_dataset_energy=-191.9940643310547 energy=-191.93227651225908 stress="inf inf inf inf inf -inf inf -inf inf" pbc="F F F"
O        1.44651532       4.24107075      -1.89111459       1.52058208      -0.81370538      -0.65120041       0.27148643       1.09993137       0.24334995      -0.49912230      -0.04900497       0.78417441      -0.10560102      -0.39225375      -0.27534781       0.60822396       1.54070227      -0.83037434      -0.66293061      -4.71237482
O        1.30895603      -3.62643719       0.94863951      -0.58975643      -0.50804180      -0.18334487       0.36972314       0.66370283       0.26934671      -0.07073740       0.30792447       1.53305670       0.12888618       0.07272335       0.29596035       0.80279988      -0.56939448      -0.48804481      -0.20489114      -4.56040813
O       -1.56849039      -1.65108395       0.03092086      -0.21410924      -0.13032879       1.70884275       0.22120343       0.63953776       0.27594065       0.01480878       0.32192545       0.54552846      -0.11555611      -0.34316365      -0.36863961       1.65226574      -0.23210610      -0.12135270       1.70118549      -4.73689784
O       -1.26488471       1.61158550       1.13234377       0.31303799      -0.33538604      -0.49537092       0.28348818       0.97318656      -0.45556278      -0.22619454      -0.30298428       0.86054660      -0.09393639      -0.35334270      -0.00473690       0.59703298       0.31903484      -0.33024781      -0.49767343      -4.68603681
O        2.64869213      -1.85005593       0.94407582      -0.97503245       0.11288019       0.52223587       0.37755907       1.20282067       0.37087495      -0.21492426       0.22769232       0.99040378       0.01472479      -0.31784917      -0.19152533       0.82094277      -1.02058736       0.09723660       0.50633208      -4.49669348
C        0.37590331       4.28912163      -1.34609818      -0.46926531      -0.02927836       0.04338275      -0.07551161      -1.20071823      -0.28811670       0.69688187      -0.13437129      -1.52452691       0.58272955       0.64860006       0.75199534      -0.68423936      -0.46199856      -0.02388236       0.07721356      -5.33624428
C        1.65118611      -2.52665854       1.39085639       1.33549941       0.04038545      -0.79064018      -0.05863328      -1.12945300      -0.82852876       0.55380078      -0.67806801      -1.64136123      -0.37255417       0.47177645      -0.37708017      -0.78579273       1.39394288       0.07558691      -0.76150314      -5.09647380
C       -1.38122284      -1.72156978       1.26798654       0.52661705       0.94480538      -2.01645494      -0.10020241      -0.95319979      -0.67274643       0.15169164      -0.65251646      -0.71196325       0.37515779       0.31847152       0.53134122      -1.71349854       0.51497422       0.92745147      -1.99201852      -5.32752222
C       -0.24653301       1.17587817       0.59659386      -0.72005063       0.92278010       0.65104747      -0.08472259      -1.14269014       0.77209730       0.30984523       0.55092436      -1.28002337       0.39280291       0.38792964       0.34029892      -0.67738702      -0.70844625       0.87021967       0.63789562      -5.37938270
C        2.24168539      -0.41625205      -1.89634240      -0.82225472       0.10374892      -0.19159062       0.00425505      -0.07596972      -0.22381508      -0.01797763       0.13446312      -0.19026994      -0.05775790      -0.08869410       0.02751890       0.05231422      -0.91383036       0.17690624      -0.25660238      -5.36325379
C        0.89137864      -0.16389579      -2.03676844       1.35045445       1.51838446       1.22114384      -0.04118669      -0.25479709       0.18070361       0.01276776      -0.02119379      -0.39089630      -0.07482395      -0.00322768       0.06095683       0.02666317       1.46326248       1.53376860       1.19241962      -5.51773978
C        1.13281262      -2.32898617      -1.80270636      -0.38366109       0.67526323       2.21695948      -0.12030650      -0.60185991       0.09943668      -0.02500145       0.09975381      -0.18079685      -0.00678869      -0.06611720       0.10637937      -0.18408306      -0.45623900       0.73835026       2.29503332      -5.49404117
N        2.35417271      -1.78155136      -1.71310294       0.05367123       0.10641275      -0.17495628       0.02474772       0.54356841       0.00115999       0.12662257      -0.12328178       0.18565703       0.03263594      -0.01588221       0.02581595       0.17683981       0.10982133       0.02632195      -0.10512019      -4.96093122
N       -2.15998077      -2.45247698       2.06514454      -0.06062288      -0.37542012       0.21626803       0.09322176       0.71138132       0.55613067      -0.39585128       0.47911041       0.58388611      -0.41548927      -0.10454533      -0.20225893       0.70099607      -0.03760104      -0.39273643       0.19384638      -4.75078330
N        0.38901412       0.08122337       1.00937831       0.84639627      -2.37495899       0.19487685       0.12190932       0.54316087      -0.23264123      -0.07486321      -0.28059364       0.98456994      -0.27182619       0.07569795      -0.43113728       0.49158417       0.80122622      -2.34708741       0.21702279      -4.78045290
N       -0.17347303       3.25216150      -0.65075463      -0.11020880       0.23628268      -0.35319313       0.14057685       0.48413337       0.03364362      -0.21688913       0.26089334       1.41670637      -0.46429554      -0.29889395      -0.44035878       0.60398282      -0.16678385       0.24426818      -0.32182518      -4.68332600
N        0.21377712      -1.33689153      -1.89143443       1.03972936      -0.89400083      -0.85776174       0.01031978       0.65116774      -0.13299548      -0.12771622      -0.13269969       0.39395777       0.06409954       0.04635229      -0.04193726       0.11985216       1.04420514      -0.91994273      -0.89488837      -5.10127785
C       -0.38344193       5.57890654      -1.41535389      -0.04795070       0.38053054      -0.01568561       0.10376474      -0.04089510      -0.02452939      -0.03797598      -0.10268969       0.01639002       0.00784200      -0.01163353      -0.02898758      -0.08290297      -0.05437602       0.38680277      -0.03078264      -4.66743962
C       -3.35278606      -3.14280748       1.57842076       0.43748513      -0.47006097      -0.66179311       0.06408249      -0.36026229      -0.13581079      -0.09121714      -0.27502790      -0.35285566       0.02885202      -0.13605314      -0.09194325      -0.13937601       0.43665064      -0.43613116      -0.65763381      -4.82176801
C        0.81085813      -1.90147042       2.50007153       1.52024746       1.55267513       0.54179251       0.05810233       0.08113777      -0.02348677      -0.15652974      -0.00091284      -0.00051214       0.11719926      -0.12569148       0.15012904       0.02634669       1.50964568       1.55259748       0.54460932      -4.81536916
C        0.24951553       1.17876577      -1.89999068      -0.40958965       0.32906720      -1.31065428       0.04231754      -0.10200116      -0.07788130       0.00428975      -0.04383642      -0.05793293      -0.04369127      -0.02813526       0.00435190      -0.15086693      -0.37696517       0.29580710      -1.33669582      -4.86397363
C       -0.21782771      -0.91694361       1.93882835      -0.07688278       0.12745482      -0.83753186      -0.02192615      -0.21614355       0.01624077       0.07265119      -0.01885691      -0.44307124       0.27218211       0.04182481       0.25814591      -0.32456253      -0.09736994       0.06302425      -0.79256536      -5.10446275
C        0.42242432       1.92496979      -0.56011665      -0.18099678       0.55090714       0.39662001      -0.03221519      -0.14518455       0.12394699      -0.14321489       0.08490919      -0.61665737       0.01290835      -0.10641937      -0.00994228      -0.16883389      -0.14911429       0.54795925       0.37992310      -5.14036035
H        3.06270123       0.31167620      -1.85237503      -0.50493652      -0.78134567      -0.05607293      -0.07425201      -0.02568830       0.01935981       0.02017384      -0.00734157      -0.03186927       0.01893678       0.02944287       0.00384248      -0.11102058      -0.52469940      -0.80351184      -0.03648317      -4.20071873
H        0.89983499      -3.26253319      -1.31635690       0.07710727      -0.31678057      -0.40536782      -0.04773208      -0.03610569       0.01448508      -0.02649401       0.00304580       0.00389738       0.06030595      -0.03750885       0.02498234      -0.17231303       0.07821113      -0.37739944      -0.48315790      -4.24587583
H        3.07476187      -2.16714358      -1.05907154      -0.77024168      -0.03118339      -0.59822810      -0.19210921      -0.48835147       0.15216469       0.05112688       0.12311634      -0.31674007      -0.02369231       0.02998345      -0.01567084      -0.51742540      -0.80816059      -0.01166862      -0.60510444      -3.68054107
H       -1.88797057      -2.58930492       3.03153467      -0.14498065       0.19843479      -0.43251318      -0.21297215      -0.23490827      -0.03566545       0.04360845      -0.00102070      -0.23238941       0.03653740       0.01426320       0.03547097      -0.27741519      -0.14136136       0.20540857      -0.41261522      -3.56931471
H        1.26996958      -0.24050733       0.56178892      -0.80842936       0.34825543       0.53902024      -0.18539718      -0.31683006       0.16935336      -0.00584973       0.06784229      -0.28013048      -0.04322575      -0.03081163      -0.03405005      -0.20423494      -0.79171623       0.36169610       0.52808329      -3.73447147
H       -0.99470890       3.46140242      -0.11658031      -0.25443912      -0.51025093       0.19800016      -0.19322047      -0.23580059      -0.00723738       0.03799524       0.02423172      -0.32541339       0.04009871       0.01261284       0.05696056      -0.23017183      -0.23272176      -0.50017225       0.19217024      -3.63484305
H       -0.76596779      -1.42106628      -1.55467844       0.72555017      -0.11777012      -0.15458933      -0.16289824      -0.47272970      -0.07598356       0.14059519      -0.03680072      -0.22411562       0.00708758       0.18668777      -0.06345576      -0.63688183       0.73991498      -0.14604047      -0.16467052      -3.83171350
H       -1.43815255       5.43793774      -1.20028281      -0.04816512       0.36643338       0.13973670      -0.05144034       0.08387593       0.02085573      -0.02789508       0.00862393      -0.00810420      -0.00515352      -0.02612305       0.00153284      -0.02240697      -0.05501504       0.36637865       0.14624538      -4.00226816
H        0.12767619       6.23348475      -0.70476145      -0.47791481       0.06238034       0.14133419      -0.04818754       0.00524891       0.00457365       0.04010412       0.00408758       0.11954876       0.02446231       0.02047696       0.09125442       0.00702272      -0.48023577       0.05340264       0.14806843      -3.95593382
H       -0.23245251       6.06586885      -2.39591742      -0.16723357      -0.58430594       0.44513035      -0.04363912      -0.00878115      -0.05868105      -0.00001347      -0.01773246       0.14792436      -0.08672172       0.00536649      -0.14742815       0.09235316      -0.17240875      -0.58928643       0.43922428      -3.95756069
H       -4.20646858      -2.50295496       1.67923200      -0.51083291       0.29021049       0.04541306      -0.05302532       0.10614701       0.02307774      -0.00525543      -0.02058748       0.01865468       0.01226882       0.01153981       0.01498835      -0.02002603      -0.50866950       0.27349060       0.03305201      -3.98209581
H       -3.27021265      -3.43992519       0.51563323       0.28392634       0.42341596       0.64861453      -0.03522907      -0.04664163      -0.04911374       0.01111391       0.01103118      -0.00908168      -0.00351082       0.08589157       0.08896895       0.02981651       0.28963034       0.43765159       0.63307828      -3.95677300
H       -3.51797342      -4.05890036       2.13172722       0.07501712       0.00524459       0.26617840      -0.05305385       0.02241070       0.04252976       0.00802452       0.11515265       0.11395719      -0.05999866       0.00863566      -0.01596462      -0.00948357       0.06979505       0.00604024       0.28012069      -3.97749558
H        0.34083945      -2.62193108       3.13466120      -0.44244471      -0.65080220      -0.03767576      -0.05481647       0.02082553       0.02291054      -0.06916843       0.02971910       0.05093199      -0.03832127      -0.04916699      -0.08370742       0.07657692      -0.46476755      -0.63077266      -0.04352588      -3.99190288
H        1.49951804      -1.35385919       3.18638897      -0.46128923      -0.15894616      -0.65640318      -0.04727228       0.06312348      -0.02185050       0.10321148       0.02673699       0.02755103       0.05554439       0.04948882       0.01325712       0.11128294      -0.44867332      -0.15594641      -0.67018863      -3.95436539
H        0.61462915       1.88012230      -2.67443943      -0.08024406      -0.51077455       0.33429971      -0.04837025      -0.01418820      -0.00684872      -0.00559947       0.01748979       0.00156253      -0.08392585      -0.01850731      -0.09951641       0.08069137      -0.08045604      -0.49239929       0.34989710      -4.00393664
H       -0.81110609       1.01617515      -2.12128639       0.02564311       0.39901039       0.30574539      -0.05516559       0.08769491       0.01437393       0.02950342       0.01793627      -0.04132512       0.02117648       0.03991229       0.02753129      -0.00275215       0.02034305       0.40419060       0.30394592      -3.99192538
H       -0.62282324      -0.35298899       2.75148535      -0.48645097       0.28667364       0.45583519      -0.05697260       0.04756244      -0.00423985      -0.02592738      -0.03783976       0.03847267       0.03039694      -0.02255746      -0.00663516       0.01839342      -0.46508955       0.31024278       0.47791818      -4.02128540
H        1.46964896       2.08784342      -0.29618058       0.08559658      -0.39420694      -0.34259912      -0.05782021       0.07258193      -0.07082122       0.03560154       0.02075025       0.04265856       0.03003461       0.01890002       0.01864053       0.01969297       0.08742703      -0.35780534      -0.34640875      -4.04492698
46
Properties=species:S:1:pos:R:3:original_dataset_forces:R:3:LES_q:R:1:LES_BEC:R:9:forces:R:3:energies:R:1 original_dataset_energy=-202.07582092285156 energy=-202.07559639011743 stress="inf -inf -inf -inf inf -inf -inf -inf inf" pbc="F F F"
O        4.79965353      -0.04334599       1.41780972      -1.59108603      -0.66402996       0.59283912       0.30041045       1.20472360       0.27363253       0.07159652       0.46648086       0.67906543      -0.19892233      -0.07074175      -0.33074409       0.66713899      -1.60864145      -0.66318870       0.58320917      -4.65517189
O       -2.64003968       1.50945497      -2.75490499       0.05259052      -1.11874247      -0.36082855       0.37120965       1.58736504      -0.21528655       0.39084672      -0.43705952       0.85841848       0.11835025       0.08419132       0.15823009       0.76790401       0.03151848      -1.11913750      -0.38452897      -4.45333099
O       -2.10280442      -0.34219006      -0.19023192      -0.03276790      -0.38141513       0.11014713       0.18946178       0.67432663       0.15375230      -0.10329537       0.41162701       1.57634130       0.41161913       0.07085897       0.56488075       0.67047977      -0.04311684      -0.50775014       0.07473667      -4.84215098
O        0.87912607      -2.41427159       0.00022775      -0.12366257      -0.39354894       0.29471505       0.28131402       0.56174987       0.19392495       0.10599116       0.01361879       1.15764123      -0.38362430       0.27340419      -0.30932358       0.71850109      -0.10769349      -0.38028154       0.27542729      -4.67187372
O       -0.49456167       1.68370366      -2.46869040       1.56798744      -0.20023669       0.16121741       0.32133478       1.36149329      -0.03093524       0.26581264       0.33083689       0.99754636       0.27131639       0.29807098       0.19623298       0.79963793       1.55590781      -0.25866933       0.17052966      -4.64913540
C        3.95064878      -0.78907448       1.94401646       3.10899591       0.62013119      -0.33701435      -0.06522259      -2.01418881      -0.40829074      -0.48580493      -0.60323767      -0.59378656       0.35772063      -0.39907937       0.45246048      -0.85625881       3.11792173       0.62730337      -0.33120480      -5.31675855
C       -1.48263121       1.00945306      -2.82401705      -1.07277095       1.04906809       0.51683921      -0.07566427      -2.12884879       0.13104118      -0.44376917       0.03360923      -1.25707433      -0.36121104      -0.25817632      -0.27223499      -0.44756948      -1.05276970       1.15120742       0.59700999      -5.05374414
C       -1.98633277      -1.30507636      -0.95203727       1.07325876       1.06286633      -0.13462482      -0.09960401      -1.06593734      -0.60782912       0.27888683      -0.75199094      -1.64097553      -0.47114297       0.31492642      -0.45004995      -0.66326809       1.05796345       1.10767958      -0.08567227      -5.33753410
C        1.11286294      -1.30192113      -0.44495475      -0.25163165      -0.88463515       1.13131225      -0.09484334      -0.78406224      -0.17765221      -0.52141857       0.01135463      -1.29336766       0.53495958      -0.67261108       0.54875720      -1.01794932      -0.25620771      -0.96705105       1.11995656      -5.34849229
N       -2.81816459      -2.33482361      -0.93975097      -1.06235051      -1.23268914       0.13078381       0.09695031       0.78690448       0.64368518      -0.05306757       0.45299811       0.86752901       0.17251662      -0.30685246      -0.04849547       0.30659046      -1.09238170      -1.25227842       0.09799517      -4.72121217
N        0.42136374      -0.79091996      -1.46867085      -0.08878791       1.48182440      -0.51752049       0.12022199       0.72796438      -0.12467391       0.43243668      -0.03596923       0.56537241      -0.12650889       0.42020206      -0.35516769       0.82549491      -0.15330887       1.52822463      -0.51167909      -4.84340193
N        2.73218632      -1.00608087       1.45198512      -2.11794591      -0.86497766      -0.58203954       0.10501943       1.36215332       0.09193339       0.49387557       0.07965317       0.42854432      -0.13775292       0.57131859      -0.07918298       0.62636367      -2.11421304      -0.81400286      -0.55214678      -4.80340460
C        4.33428288      -1.61522031       3.19073462      -0.52406353       0.04526689      -0.97752327       0.10764806      -0.04143627      -0.01853220       0.04250021      -0.01617629      -0.02443826      -0.13650974      -0.00488481      -0.11776539       0.04129726      -0.49602360       0.02520187      -0.98145490      -4.62426144
C       -3.83714914      -2.52417922       0.13344443       0.69250607      -0.21402082      -0.57790804       0.05760176      -0.44524577      -0.15246450       0.14149083      -0.06604789      -0.16393810       0.02744575       0.16114851       0.04143499      -0.29484001       0.73012208      -0.23342933      -0.56509709      -4.80900310
C        0.51120687       1.12007165       1.37008095      -0.12681061       0.49634877      -0.13208154       0.09714017      -0.14073778      -0.08656178      -0.04261523      -0.03723671      -0.05748191      -0.00660575       0.01264126      -0.04662302      -0.13388592      -0.13091474       0.48469614      -0.17371004      -4.65787864
C       -0.12516797       2.53280163       1.46016860       0.58425099      -0.36687776      -1.27787745       0.09219354      -0.03823266       0.10986245       0.04290242       0.01487502      -0.19466753       0.01755617       0.00551390       0.04035352      -0.12422694       0.64844341      -0.36982750      -1.21732215      -4.68415518
C       -1.23389506      -0.45494926      -3.23451948      -0.05779948       0.21705076       0.23540702       0.05292195      -0.02564062      -0.00497380       0.03306496      -0.06146301       0.16875020       0.04841199       0.01674010       0.07492583      -0.00945576      -0.07122648       0.25426710       0.21094224      -4.79705210
C        1.72195113       1.02802491       0.41147327      -0.68389446      -0.51655149       0.37292409       0.08420266      -0.15030895       0.00697107       0.02833883      -0.00099257      -0.01542154       0.01525187      -0.00545615       0.05940760      -0.05934037      -0.69430702      -0.49699189       0.39297235      -4.78495931
C       -0.68403804       3.13534260       0.12682664       0.31993201       0.19133858       1.24059308       0.02651267      -0.46252867       0.02148806      -0.10853970      -0.14578818      -0.11603491      -0.04807172      -0.10423895      -0.08257452      -0.25865373       0.28254934       0.22171866       1.17572913      -4.67030558
C       -0.83368623      -1.32235599      -2.00667024       0.61425680      -0.54025036      -0.25577942      -0.00937944      -0.42527966      -0.10906048      -0.22887753      -0.12518844      -0.22212402      -0.13970621      -0.28707063      -0.01429561      -0.32571424       0.62552952      -0.56898228      -0.27047701      -5.08839759
C        2.19816995      -0.43299106       0.20249099       0.94065225       0.92515457      -0.41660890      -0.01711754      -0.28531096       0.18081447      -0.16319795       0.09759484      -0.20223104       0.14314555      -0.14668992       0.14210625      -0.40958137       0.99709948       0.90274380      -0.38439454      -5.05911738
N       -1.98766971       2.49099231      -0.26761755       2.02610111      -0.75910383      -0.53115320       0.03948037       0.38537843       0.01512840       0.13024104      -0.09775116       0.46742802       0.01216710       0.03306674       0.12941190       0.34454007       2.01187811      -0.72148584      -0.54570718      -4.22093586
H       -2.70615339      -3.06217837      -1.64416921       0.05460559       0.40952680       0.61157411      -0.21281053      -0.19881332       0.00740810      -0.01870847      -0.00924546      -0.25938908      -0.04119175       0.00113777      -0.02694754      -0.22167557       0.03908422       0.42989379       0.59012797      -3.59016469
H        0.61515570       0.18376112      -1.73178470      -0.48633161      -0.50912005      -0.01089993      -0.17439851      -0.20791025       0.11611796      -0.05355868       0.15091318      -0.42563476       0.12326540      -0.01074049       0.11621011      -0.23775026      -0.44628522      -0.51966479      -0.01300531      -3.67662486
H        2.18657374      -1.77233481       1.85542154       0.28903690       0.56100923      -0.43256423      -0.19937828      -0.24876090      -0.04155113      -0.01441627       0.01074642      -0.24678330       0.01127106      -0.00541492       0.02017946      -0.24031670       0.28075052       0.56428054      -0.44000202      -3.61429800
H        5.40319490      -1.81337595       3.20579243      -0.07601270       0.21406358      -0.22676963      -0.04557458       0.13918526      -0.05051994       0.06317774      -0.05092601       0.00160528      -0.03236025       0.04322905      -0.02327673       0.01659246      -0.08011011       0.20898704      -0.22380288      -3.97983790
H        4.08818579      -1.03959405       4.07946110      -0.24763840      -0.30435419       0.11375917      -0.05323522      -0.01287773      -0.01444622      -0.00677704      -0.00587770       0.00423780       0.04350368       0.02374816       0.01256677       0.09973152      -0.26061223      -0.29745704       0.11436173      -4.01270296
H        3.81213093      -2.57565713       3.09299612       0.03751862       0.25124514       0.66576320      -0.04741518       0.02920304       0.04011470       0.02124652       0.06053803       0.06656785      -0.00434846       0.02721270      -0.01063083       0.00952568       0.03413200       0.24642170       0.66927279      -3.96575920
H       -4.57123184      -3.28654099      -0.14421064       0.23098347       0.34879145      -0.23650229      -0.05318445       0.11395296       0.09300649      -0.02090776       0.07161203       0.02501248      -0.00490424      -0.01095016       0.00763828      -0.00250273       0.23523100       0.33586942      -0.24030630      -3.99023272
H       -4.31280136      -1.58375692       0.35356390      -0.20428629       0.22736107      -0.12663028      -0.04141565       0.03375001       0.02510715      -0.01420941      -0.11900358      -0.00973083       0.02772715      -0.01216540       0.01060733       0.00838376      -0.19316329       0.24582439      -0.11021475      -3.98553447
H       -3.35207081      -2.86664939       1.04224682       0.16385181       0.00399154       0.05554448      -0.04959149       0.00080854      -0.01900393       0.01554684       0.02609220       0.00192997      -0.01923234      -0.04767789      -0.05420408       0.06266186       0.13711233       0.01047387       0.06598905      -3.97681815
H        0.82296288       0.79760081       2.36746573       0.01757668       0.27097449      -0.05312984      -0.05683257       0.00324085      -0.01504546       0.02258686      -0.03364995       0.00450873      -0.07451693       0.01859332      -0.04972100       0.09703172      -0.00127743       0.27571953      -0.02889990      -3.97232564
H       -0.31080359       0.46726722       1.12536812       0.06722355      -0.62336570      -0.52375835      -0.03799039       0.00025406       0.06295136      -0.02124205       0.03450589       0.00733823      -0.00301726      -0.06611193      -0.00656630      -0.03579500       0.08851781      -0.61719907      -0.50195280      -4.00929161
H        0.65405989       3.18527412       1.81795502       0.01044643       0.57552928       0.21711460      -0.06239381       0.06132784      -0.00836502       0.05023057       0.02908884       0.05293840       0.03287863       0.05362172      -0.03225250       0.01951776      -0.00317593       0.57043182       0.19450402      -3.96029225
H       -0.92488313       2.48067212       2.16686964      -0.45023522       0.19250198       0.68292201      -0.05977401       0.05786251      -0.06431393      -0.09148632      -0.01488360      -0.00156018      -0.02608955      -0.05380200      -0.01112108       0.04711084      -0.43591148       0.18705594       0.70339979      -3.96084170
H       -2.17810869      -0.84881938      -3.61015487       0.31246045      -0.05468128      -0.38104895      -0.05764371       0.06336830       0.03353280       0.07402548       0.02486774       0.03734943       0.03874756       0.05945710       0.00979336       0.04306554       0.32983602      -0.05868462      -0.38913082      -4.01951197
H       -0.39782110      -0.44572428      -3.96896076      -0.78682488      -0.30175897       0.40984052      -0.05102908       0.02826563      -0.02410768      -0.13911024      -0.00808351       0.02271637       0.00795809      -0.02614813       0.00508490       0.09928490      -0.79945862      -0.32842499       0.41496020      -4.00352382
H        2.55125690       1.59649825       0.82933700       0.01875491       0.02011250      -0.15641929      -0.05397900       0.09159445       0.06660632       0.00976077       0.05389045       0.01740474       0.03029875       0.02690873       0.05139312      -0.00165775       0.01869370       0.02997985      -0.15267471      -4.01377515
H        1.44809401       1.44568992      -0.55703366       0.20650853       0.08630121       0.06724613      -0.05111299      -0.02100665       0.00211218      -0.01570519      -0.02879397      -0.03306386      -0.02685134       0.00021448      -0.03328291       0.05836963       0.20328630       0.10600117       0.04647504      -3.97491807
H       -0.92280912       4.21504927       0.29192114       0.39152682      -0.88617408      -0.30386218      -0.06038154       0.03259186      -0.09213165       0.02420353       0.01110456       0.08812119      -0.01006391       0.02448309       0.00311999      -0.00918461       0.42549255      -0.90114285      -0.30835313      -3.96238590
H        0.04514468       3.00130868      -0.68175578      -0.68955439       0.15721263       0.14476213      -0.04387080       0.06159034      -0.02007929      -0.06568880      -0.00591013      -0.04813318      -0.07195667      -0.05507455       0.00826320      -0.04798144      -0.67915362       0.17194436       0.15781554      -3.97498786
H       -0.62318921      -2.37263656      -2.33332491      -0.42039618       0.82058400       0.27727512      -0.05663003       0.02785551      -0.02765292      -0.01377156       0.03056399       0.12874549       0.06180021      -0.01000735      -0.02188751      -0.00029681      -0.42348615       0.82165275       0.29666194      -4.02607648
H        3.02159142      -0.41255447      -0.53865403      -0.20296945       0.08915912       0.47890931      -0.05740193       0.04358109      -0.03284693      -0.05586520       0.00950629       0.03244285      -0.01173475       0.00744221      -0.02446779       0.05891151      -0.20371812       0.09182602       0.46592163      -4.01116577
H       -1.94748712       1.45381379      -0.18569505       0.05022380       0.13472265       0.05764408      -0.11435236      -0.13312569      -0.07129591      -0.00350585       0.08148712      -0.78245255      -0.01055745       0.01117224      -0.03676303      -0.16472213       0.04624051       0.12779309       0.04896715      -3.57592111
H       -2.11246705       2.59124088      -1.29439163      -0.62916219       0.00566989      -0.19846086      -0.13520321      -0.25234404       0.02468503      -0.08219542       0.06619881      -0.39390646      -0.14046325      -0.13115567      -0.10582946      -0.60610176      -0.61391114       0.01091225      -0.26307351      -3.48466291
H       -2.72383809       2.82920122       0.30454230      -0.90077335       0.36032772       0.18845809      -0.20323601      -0.35789416       0.12374446       0.02897156       0.08151139      -0.27536000      -0.02056757       0.12574631      -0.10965004      -0.21940652      -0.93624236       0.33753968       0.20784586      -3.37067946
42
Properties=species:S:1:pos:R:3:original_dataset_forces:R:3:LES_q:R:1:LES_BEC:R:9:forces:R:3:energies:R:1 original_dataset_energy=-190.39324951171875 energy=-190.39888403826566 stress="inf inf inf inf inf -inf inf -inf -inf" pbc="F F F"
O       -0.62402862      -1.77041280       3.59451628       0.25338444      -0.55799162       0.02852764       0.28976652       0.41929315       0.25673490      -0.21164782       0.27991959       1.08136661      -0.36862213      -0.14907193      -0.21808781       0.93575419       0.23988467      -0.59640323       0.06444853      -4.68796436
O        0.54410994       1.79625988       0.42189884       0.31675714       0.14336188      -0.64981461       0.32194483       0.76651960      -0.04905846       0.04067149      -0.04659474       0.67029992      -0.10705549      -0.19619813      -0.02345801       1.63030170       0.29185336       0.10469042      -0.50637525      -4.63171325
O       -3.77867126       0.22523886      -1.02324438       1.07820237       1.11842811      -2.60157323       0.29486084       0.80110557       0.08140926      -0.30690333       0.13614512       0.41408189      -0.26703092      -0.07982872      -0.26309583       1.16525810       1.06052817       1.10482844      -2.56741439      -4.64507935
O        0.61599386      -1.49438155      -1.37445474      -0.32707083       0.49038094      -0.26734412       0.27925569       0.92792923      -0.39426770      -0.20308687      -0.25561770       0.58400415       0.10595464      -0.35751362       0.29403692       0.89869710      -0.25062019       0.45541275      -0.20452535      -4.67352707
O        1.54269278       1.62472248      -1.59669542       0.61610234      -0.12202808       0.62903821       0.34396911       1.33376466      -0.09516024      -0.48481229      -0.23198157       0.56227627      -0.10587499      -0.20660253      -0.18677019       1.24242527       0.47546705      -0.15570573       0.75773063      -4.56550118
C       -0.23986536      -0.71185189       3.13331366      -0.49017146       1.07749557       3.49875617      -0.06005565      -0.25041628      -0.37858288       0.37690210      -0.39101685      -1.21625856       0.41474755       0.36251450       0.26471535      -1.93417110      -0.46910908       1.03381231       3.39759051      -5.29416921
C        0.55769432       1.77023673      -0.84023869      -0.82124335      -0.63409871      -0.20195185      -0.07551754      -1.38980674       0.16658536       0.34567002       0.14221317      -0.14608039      -0.10078105       0.35761616      -0.14016875      -2.04553280      -0.71378042      -0.53815508      -0.49266138      -4.95990598
C       -3.05504608       0.59034586      -1.99293470       0.75296980      -1.45029747       3.69453764      -0.07802211      -0.96800579      -0.04805439       0.10948221      -0.13412159      -0.17228432       0.37347965       0.14816741       0.46287527      -1.61030718       0.80294741      -1.39865631       3.69939335      -5.27067510
C       -0.14754993      -1.11800325      -0.48606819       2.10575795      -0.24983887      -1.77229369      -0.08525103      -1.32943991       0.87214009       0.13919507       0.75451033      -0.64247401       0.02480508       0.18722690      -0.13642205      -1.08103251       2.09459086      -0.28491994      -1.90837828      -5.18638862
C        4.16751146      -1.53979468       1.18510485      -2.49524617       1.68478823       0.77157569      -0.00560775      -0.07012969       0.18332311      -0.08799712      -0.10724222      -0.18267786       0.03734605       0.01824558       0.12282968      -0.04489947      -2.34690312       1.55141249       0.79696889      -5.25168024
C        2.82117033      -1.21522212       0.99989295       0.06243229      -2.47358274      -0.66854388      -0.03862524      -0.31195230      -0.29716506       0.08695344       0.14485319      -0.25501495       0.09584309      -0.01942436       0.06302276      -0.08193063      -0.11842025      -2.44464283      -0.66224676      -5.40240766
C        3.97718191       0.47369027       0.17259246       0.70620775      -0.22102183       1.47143996      -0.11943179      -1.08102752       0.08451279      -0.17289265       0.05171468      -0.05685881       0.02211480      -0.18710711       0.00357966      -0.17758913       0.76567323      -0.16892541       1.44249149      -5.68111348
N        4.82815981      -0.34275422       0.83729732       1.92075598      -0.96581393      -0.48013464       0.00585607       0.71987695      -0.09005340       0.15591517      -0.24105427       0.13487830      -0.09828702       0.07362535      -0.07822724       0.07192300       1.81135990      -0.94691169      -0.43598698      -5.02046028
N       -3.46297407       0.90128541      -3.20894480       1.40482581       0.01685649      -0.31088895       0.06490558       0.44936315      -0.03497064       0.25019777       0.08625549       0.14689849      -0.16312054      -0.03659607      -0.22745298       0.83754189       1.34231456      -0.02585545      -0.36272108      -4.70772550
N       -1.25536251      -0.38648093      -0.69484556       0.01315591      -0.79742211       0.59150952       0.13160279       0.95899556      -0.48618527       0.11281161      -0.52902610       0.69468398      -0.18980266       0.30068925      -0.26563506       0.54969902      -0.03276307      -0.67927930       0.54314310      -4.59065749
N        0.03433645      -0.48181087       1.89091885       0.51345843      -3.17787695      -2.43605566       0.10937978       0.31348401       0.00511852      -0.21457693       0.00852888       0.65482366       0.07958217      -0.23718593      -0.11871560       1.57576440       0.38449184      -3.07987084      -2.37888226      -4.70524832
N        2.76857042      -0.00896031       0.34979051      -0.62311935       0.19102061      -1.47641861       0.00927902       0.85756764      -0.02302271       0.09451525      -0.10507049       0.17776321      -0.09393866       0.13917273      -0.16662799       0.13994237      -0.68452311       0.21768634      -1.49825410      -5.19028540
C        0.01221454       0.52929747       4.06615973      -1.81995845      -1.43680859       0.22578511       0.12019095      -0.07937554       0.04923351       0.04515007       0.04482827       0.05829806       0.06692092       0.01980154       0.10705115       0.01256475      -1.84294066      -1.44914615       0.21206640      -4.52883678
C       -4.82009983       0.79550660      -3.49673414      -3.23080802      -0.25493979      -0.68777794       0.07297811      -0.47260271      -0.02508185      -0.09078242      -0.16541150      -0.11082686      -0.10690831      -0.00516428      -0.02449056      -0.09527142      -3.18332405      -0.26777209      -0.69072502      -4.72777022
C       -0.80556422       1.80337977      -1.54786491      -1.02749753       0.81431252       1.11657059       0.08454638       0.26126662       0.03636847       0.07341908      -0.02363099      -0.07050695      -0.01597253       0.17413286       0.01168908       0.08719070      -1.08141792       0.90074965       1.06165640      -4.76929207
C        1.61998379      -2.22195768       1.12611032       1.38243508       1.88682520      -2.00993919       0.05887914      -0.24274907       0.14617899      -0.03157226      -0.04457910      -0.05938812      -0.04386011       0.02478465       0.03721716      -0.13952274       1.25859462       1.86995155      -1.96520296      -4.85067108
C       -1.51596868       0.49684155      -1.82866466      -0.54638427       0.02678666       2.49008918      -0.02668829      -0.02986902       0.03126587      -0.09649061       0.07335565      -0.45667904       0.21306367      -0.13929205       0.18354664      -0.36415072      -0.56319822      -0.03594266       2.58469909      -5.08538913
C        0.25208384      -1.55243206       0.90194631      -0.96982378       0.37060136       1.45484984      -0.03126292      -0.19812098       0.15606775       0.02870560       0.09093670      -0.41042290      -0.18560212       0.04550707      -0.17816465      -0.22218261      -0.86801696       0.36247727       1.43799999      -5.04971690
H        4.49863052      -2.50169182       1.60291326       0.50712979       1.18832612      -0.16780563      -0.07460719      -0.03120944      -0.00354321       0.00294091       0.08995112      -0.06144423       0.01320606       0.05020618      -0.03573097      -0.05507295       0.50363081       1.17377393      -0.20098489      -4.20373912
H        4.21536160       1.36618221      -0.38743466      -0.06510159      -0.07786548       0.31309301      -0.06416233      -0.08299332      -0.00579567       0.00151271       0.03286053      -0.06051911      -0.00247823       0.08108124       0.01216826      -0.06366130      -0.03005634      -0.05241931       0.26082062      -4.24878698
H        5.83469725      -0.16104600       1.05762529      -1.59912860      -0.18469524      -0.79192680      -0.21848020      -0.41820557      -0.05386352      -0.02042234       0.08269343      -0.25091818       0.02267247      -0.05410513      -0.00281359      -0.22860947      -1.59351795      -0.16290458      -0.79808405      -3.64369110
H       -2.83751678       1.32337427      -3.91124105      -0.49686337      -0.66089100       0.94865376      -0.21881174      -0.26722265      -0.00729710       0.02638617      -0.03505216      -0.22455351       0.00168885      -0.00551051       0.04398313      -0.29070710      -0.48145730      -0.65762625       0.96119027      -3.55404285
H       -1.92811310      -0.44460040       0.03734684      -0.61426002       0.60594910       0.26551858      -0.18827409      -0.27007207      -0.01306429      -0.00219226      -0.04788623      -0.18304885      -0.02474999       0.06370326      -0.00992159      -0.20363304      -0.61267671       0.65942283       0.26065677      -3.63031258
H        0.05616093       0.41410983       1.56495631       0.53019595       3.07765579      -1.17088127      -0.14483339      -0.17858927      -0.12992602       0.05314952      -0.10631495      -0.47498466       0.12514408       0.05011135       0.28372682      -0.28860494       0.58307761       3.16380602      -1.23383749      -3.77668065
H        2.00733519       0.43464684      -0.25556999       0.67369395      -0.35154361       0.84178084      -0.14567369      -0.56897241       0.15289189      -0.09489991       0.34136514      -0.43052932       0.20665188      -0.23787888       0.18514617      -0.43498594       0.76461214      -0.38597311       0.91332097      -3.82453827
H        0.91984713       1.02050304       3.83550167       1.17957997       0.13798487      -0.00425966      -0.05249089       0.05080155       0.04710969      -0.03492766       0.04992450       0.02290437      -0.06337703      -0.02980033      -0.00124168      -0.03254642       1.20118956       0.14530333       0.01147031      -3.99387896
H       -0.06088430       0.08905673       5.08620453       0.26194569       0.79631299      -0.67563522      -0.04273805      -0.02096106       0.00418037       0.00274042       0.00190347       0.01358262       0.02801149       0.00492781      -0.00040128       0.09115893       0.29393887       0.80327775      -0.67650417      -3.95862873
H       -0.74528557       1.31303430       3.91910839      -0.07372528      -0.48254451       0.12410786      -0.04847118       0.02879514      -0.05761304      -0.02418233      -0.05404846       0.06749342      -0.01752769       0.01285331       0.00174114      -0.00184483      -0.09799990      -0.47513453       0.12240420      -3.98891270
H       -5.23729229       1.79088521      -3.39996719      -0.65540135       0.13098688      -0.32633266      -0.05156572       0.12825814      -0.03830422       0.06411224      -0.07350286       0.05903609      -0.02484061      -0.01341686       0.01650182      -0.04120209      -0.66239622       0.16348155      -0.30782247      -3.95616067
H       -5.45088053       0.13939041      -2.80927896       1.55511200       0.74288470      -0.69685572      -0.03170392       0.00237710       0.01450350      -0.02665437       0.09840435      -0.00321536       0.03448943      -0.19730727      -0.01387194      -0.09723490       1.54280967       0.74047119      -0.72580529      -3.93453979
H       -4.95495081       0.41129875      -4.52009964      -0.08089043       0.30447933       0.34074697      -0.05220386       0.10292078      -0.00367287       0.07903205       0.11586942      -0.03769790       0.10918467       0.14967034       0.00626743       0.14722315      -0.07155353       0.28450583       0.36893679      -3.97202230
H       -1.48650551       2.26599240      -0.83572781       0.08214889       0.59063220      -0.06710424      -0.04791355       0.04847473      -0.01882344      -0.01241642      -0.03573619      -0.00616264       0.00151688      -0.05582674       0.07866976      -0.01336728       0.07854422       0.58363525      -0.05043006      -3.90701943
H       -0.71834075       2.39081407      -2.42766190      -0.01413707       0.57625479      -0.81256253      -0.05832858      -0.00761564       0.00144905       0.01745033      -0.00674745       0.05927608      -0.09123824       0.01244957      -0.08834763       0.06801539       0.00654058       0.52896588      -0.77999480      -4.00663661
H        1.85050786      -3.02632952       0.42215216      -0.45127824       0.35396853      -0.28924698      -0.05416599       0.01986690      -0.01161537      -0.01387731      -0.03904313       0.07244406       0.04217852      -0.05411234       0.09136275      -0.00182174      -0.39152826       0.30059008      -0.29977454      -3.99121142
H        1.68865478      -2.70121074       2.06018639      -0.34368771      -0.12362345       1.42508590      -0.06062853       0.02466012       0.01732555      -0.00555657       0.02935938      -0.01545281      -0.02515074       0.00983523      -0.06762570       0.06199467      -0.28858215      -0.17393946       1.42415804      -4.01521660
H       -1.21781456       0.03589654      -2.68192530       1.43951082      -1.36900651      -2.43772125      -0.05970411      -0.00761003       0.00363154      -0.00719717       0.03472685       0.01466776       0.07117627      -0.02198542      -0.01976039       0.06559361       1.44428163      -1.36419117      -2.41218111      -3.96195213
H       -0.47018415      -2.32304859       1.05406547      -0.60880035      -0.73517710       0.77506661      -0.05869640       0.06162648      -0.04490887       0.03617542      -0.01664071       0.03922043       0.00644083      -0.00239407      -0.00309946      -0.03116589      -0.56154534      -0.80387977       0.83764633      -3.93926272
51
Properties=species:S:1:pos:R:3:original_dataset_forces:R:3:LES_q:R:1:LES_BEC:R:9:forces:R:3:energies:R:1 original_dataset_energy=-224.3721466064453 energy=-224.3198365341624 stress="-inf inf inf inf -inf -inf inf -inf -inf" pbc="F F F"
O       -2.07636189      -0.19993728       3.28615999       0.35611174       0.26739407      -0.28070828       0.22494504       0.74049539       0.05266065      -0.39433433       0.28800402       1.39530052      -0.07084216      -0.26918467       0.18655387       0.64016091       0.35838001       0.27467794      -0.23839246      -4.84624523
O       -2.34935212      -0.17100143      -1.59178424       0.01953022       0.06829194      -0.68422663       0.32005441       0.95409486      -0.21574628      -0.16170196      -0.17619938       1.04686428       0.14597761      -0.16748270       0.43250173       1.03325118       0.01797722      -0.01597204      -0.65378785      -4.58039416
O        1.81102133      -0.54180914      -1.56060505      -0.10161682      -2.01774502       1.56550741       0.26999319       0.76244985      -0.09693780      -0.28534601       0.15054792       0.90863499      -0.58815306      -0.41826155      -0.35898950       1.03054576      -0.07425653      -2.03223981       1.56298482      -4.62005623
O        1.18737209       2.51300812       0.36479414      -0.72679454      -0.31791258       0.64041305       0.29196921       0.78819133       0.60328838       0.23824343       0.42504576       0.97550823       0.15506554       0.06040659       0.03063893       0.68644612      -0.73800766      -0.37250453       0.67528332      -4.66314775
O       -1.57448053      -2.14125395      -2.18223763      -0.12521857      -0.31445369      -1.07669938       0.23733623       0.55383262      -0.14791766      -0.19765226      -0.20728198       1.47593739      -0.14823251      -0.10354671      -0.36973074       0.89254298      -0.08266122      -0.34533947      -0.88429888      -4.72882150
C       -1.73377120       0.98668182       3.22653222      -0.50734770      -0.80746120       0.30432138      -0.07439837      -1.13508940      -0.33938736       0.98474889      -0.56581935      -1.34878046       0.34165287       0.81381983       0.03639708      -0.90295143      -0.52671997      -0.87940931       0.29280354      -5.35100888
C       -1.68548274      -0.89948231      -2.37298036       0.04438673       0.22931747       1.00833845      -0.09258798      -0.68142701       0.37965466       0.67594758       0.38046659      -1.83316635      -0.02841121       0.58531878      -0.12969405      -1.09701404       0.03441466       0.29147316       0.89938768      -5.04478742
C        1.77054381       0.42711318      -2.26573873      -0.90846914       0.31767088       0.47785854      -0.10729138      -1.23284949       0.05266874       0.86077925       0.06618200      -0.89731339       0.52499409       0.77988254       0.50014742      -1.03336128      -1.04866531       0.36853595       0.44038843      -5.25402380
C        0.34003171       1.61288059       0.29347682       2.68469954       0.37483421       0.09236245      -0.08026823      -0.71935830      -0.80214857      -0.35609246      -0.69146632      -1.00150568      -0.30268213      -0.25623503      -0.22426856      -1.34577024       2.62773842       0.39286468      -0.00944898      -5.19862489
C       -0.98965025      -2.57367420       0.77045661       1.66568661       0.32319462       0.25783736      -0.07705831      -1.50202719       0.38352002      -0.06527986       0.29815085      -0.32237467      -0.29262041      -0.16096233      -0.57329342      -1.43980897       1.66455274       0.30923490       0.25675304      -5.52132873
N       -2.20929003      -2.34610939       0.45329422      -2.94685698      -0.27322447      -2.65168667       0.16685720       1.17991698       0.00031787       0.09184256      -0.14853196       0.22487681       0.04381269       0.07232499      -0.02750643       0.65425705      -3.03494447      -0.29007987      -2.73247827      -3.90779021
N        2.76606131       0.61440730      -3.12369728       0.96924686       0.79191792      -1.14293802       0.16209869       0.91930153       0.17222566      -0.67382346      -0.19472532       0.42999713       0.02445768      -0.33494887      -0.26976576       0.59435614       1.06476066       0.80845016      -1.20830578      -4.52347800
N       -0.57714945      -2.32123804       1.96572590       0.49497753       0.53122729       3.70568752       0.10122482       0.63187731      -0.06318704       0.30019762       0.00540725       0.36160890       0.12092544       0.30326779       0.14003183       1.08934027       0.53874989       0.53633800       3.67660987      -4.55906895
N       -0.12263530       1.17889333      -0.85675550      -0.40689573      -0.92720938      -1.14696670       0.12786047       0.55840219       0.13027622       0.24313973       0.20739229       0.37458825       0.14110266       0.25622006       0.31426089       1.16274787      -0.35463074      -0.83956558      -1.04071832      -4.65814801
N       -0.75632423       1.46522200       2.45543194       0.36605003      -0.50460142      -0.44891244       0.09993362       0.93547011       0.13974031      -0.64842870       0.05673104       0.49195850      -0.09713873      -0.59546592      -0.09954125       0.78775638       0.41123694      -0.46888320      -0.54362802      -4.78497843
N       -0.16395395      -2.95302820      -0.13956681       0.00624880      -1.20655859      -2.92278194       0.16716944       0.70103333      -0.72578980      -0.18692119      -0.20947854       0.42275729       0.18139293      -0.18714356       0.26068416       0.85057893      -0.00727975      -1.15296075      -2.78733118      -3.86179272
C       -2.42819643       2.01405525       4.05958462      -0.72783738      -0.01233082      -0.09055379       0.10172227      -0.01528539      -0.07761388      -0.10922425      -0.04293291       0.03613290       0.05119556      -0.07824991       0.08399570      -0.03440752      -0.71927894      -0.00402227      -0.09243008      -4.72179927
C        3.04846931       1.77528322      -3.96729851       0.19521511      -1.44277787       0.15230815       0.04325258      -0.14175083      -0.05729827      -0.00421107      -0.04853006      -0.36332015       0.14543739      -0.05419074       0.12654108      -0.15773347       0.24529598      -1.46618569       0.17125923      -4.88407557
C       -0.90024173      -0.23749715      -3.52200913      -0.72284204       0.48037499      -0.24557772       0.08180662      -0.01556694       0.04608491      -0.13259807       0.05881781      -0.05247599      -0.05285063      -0.14820353      -0.07834620       0.12613950      -0.72224288       0.49549594      -0.23974763      -4.80859866
C        0.77032661      -2.33249283       2.55746555      -0.19528572      -0.61033452       0.88333118       0.01442755      -0.47689838       0.04819930      -0.22679421       0.02013313      -0.27576605       0.05219960      -0.16261207      -0.04121208      -0.27111301      -0.20849910      -0.66618657       0.88986113      -4.89265246
C        1.18735933      -0.97949123       3.14019966      -0.71101809       0.01224711      -0.88697547       0.10034771      -0.06424683      -0.03718582       0.05528492       0.03941901      -0.14601050       0.06973242       0.02460295      -0.00304418      -0.08649577      -0.69110392       0.01090752      -0.87234735      -4.77078885
C       -0.46465707       1.22273409      -3.24831319      -0.67626089      -0.90481520      -0.31424335       0.10449092      -0.09241131       0.02187472      -0.04942355      -0.02427228      -0.14634465       0.00706722      -0.03602344      -0.06104942      -0.07149813      -0.72281035      -0.96615166      -0.34353253      -4.71663373
C        1.31365263       0.11354446       2.09683084       0.11254114       0.78108054      -0.26068020       0.09783847      -0.15437382      -0.01649185      -0.14337236      -0.03040095      -0.03716324      -0.06011545      -0.02355308      -0.03348892      -0.10804902       0.10700282       0.78832766      -0.27323147      -4.67887614
C        0.56857657       1.35589826      -2.13576007      -1.19007981       1.11774731       0.10547394      -0.02629236      -0.13172800      -0.03959063      -0.04431127      -0.07168749      -0.11453168       0.04121905       0.05747121       0.09371993      -0.60922512      -1.22104586       1.10028521       0.13670361      -5.13786374
C        0.01038298       0.69732428       1.46429205       0.06766739       0.54720271       1.36925697      -0.01864176      -0.40168159       0.18974408       0.18086720       0.21666956      -0.15478631      -0.20834752       0.09374248      -0.20363495      -0.22463798       0.14244515       0.54969952       1.40760431      -5.13236171
H       -2.36619449      -2.31803155      -0.60006243       0.01836015       0.19556858       1.23009944      -0.12275288      -0.24800873      -0.02768908       0.12909319      -0.03464728      -0.21565419       0.06133714       0.22580836       0.24066889      -0.64075614       0.04664637       0.20639985       1.26724595      -3.66973278
H       -2.78226376      -1.77951920       1.02452636      -0.41711175       0.47047117       0.49847311      -0.17828876      -0.30862500      -0.01101436       0.00912232       0.06096927      -0.20107868      -0.03581126       0.03625680      -0.03603072      -0.28994103      -0.42304621       0.49943483       0.45721111      -3.57779019
H        3.47496748      -0.10925931      -3.04528069      -0.35462096       0.35698113      -0.08666740      -0.19540048      -0.41672785       0.02818131       0.15957425       0.11734783      -0.20950739      -0.08454347       0.06820140      -0.00935842      -0.24446945      -0.35724295       0.37049030      -0.05801757      -3.56973799
H       -1.31445920      -1.93459690       2.55178761       0.57546389       0.12412813       0.20264359      -0.16435184      -0.32138281       0.04966942       0.21534680       0.16170159      -0.38994743      -0.23950914       0.07532532      -0.14141436      -0.35268372       0.59371582       0.12429208       0.16156985      -3.70166314
H       -0.91782868       0.53096604      -0.82938600       0.34227958       0.27529207      -0.44670147      -0.15038684      -0.56327704      -0.22890022      -0.22399901      -0.22257454      -0.24904474      -0.16806671      -0.19329539      -0.10285277      -0.19128171       0.32208369       0.23831008      -0.43355966      -3.77409082
H       -0.64077425       2.45262957       2.43315315       0.24999715       0.49217865       0.00594749      -0.20494826      -0.18096034      -0.01986969      -0.01828559      -0.01630505      -0.28755098      -0.03706962      -0.03852672       0.01364800      -0.16632572       0.24157652       0.52565937       0.00333850      -3.59727183
H       -0.55155838      -2.90313387      -1.10443592       0.73016822       0.06940737       0.40588355      -0.10014260      -0.23619597       0.39120419      -0.16280917       0.09486761      -0.32333573       0.07935413      -0.15265951       0.27035652      -0.38117822       0.69514634       0.06064328       0.29439957      -3.74841415
H        0.78562796      -3.11113167       0.02982002       1.04745114      -0.06530803       0.16870658      -0.18360226      -0.27404074       0.10779873      -0.00222771       0.00532075      -0.22194665      -0.01047478      -0.01496261      -0.14545004      -0.24966299       1.08243096      -0.07047561       0.13881085      -3.56814883
H       -3.46647596       1.69633329       4.19891024       0.34089991       0.11289074       0.09979878      -0.04463420       0.12062286      -0.01360068      -0.09066063       0.00178811       0.01234574       0.03913349      -0.04210236       0.02056775       0.02205556       0.34527869       0.11653556       0.09832779      -3.95376026
H       -2.41225553       2.96475124       3.56056929      -0.10195612       0.52058673      -0.15917136      -0.04784461      -0.00436101      -0.01576501      -0.03250821      -0.00101940       0.07734414      -0.03388353      -0.00424773      -0.03084817       0.00563436      -0.11655386       0.53003345      -0.15631078      -3.94350334
H       -1.94599736       2.14409876       5.01350641       0.14926149      -0.15015778       0.38165042      -0.05156737      -0.01023948       0.00694034       0.05125046      -0.00091458      -0.01179970       0.02332266      -0.00371673       0.04195287       0.12510093       0.15061793      -0.15340447       0.38278446      -3.98941443
H        2.52982497       1.69093645      -4.90560150      -0.08460511       0.06433719      -0.50513035      -0.05542434      -0.01016957       0.00513549       0.01973900       0.00007592      -0.00054411      -0.00524619      -0.01404582      -0.06904964       0.12217019      -0.08636597       0.06483899      -0.52229834      -3.97839375
H        4.12101889       1.76531184      -4.12554407       0.00469839       0.30557770      -0.18906151      -0.05201989       0.04690117       0.05412631      -0.02819842      -0.02150736       0.00698358       0.00436275       0.01415292      -0.02631810      -0.04237986      -0.01446433       0.29675538      -0.19382404      -3.95553078
H        2.75634027       2.67091465      -3.48835778      -0.18637852       0.94472450       0.53166622      -0.05774446       0.00203783       0.00374797      -0.06331408       0.03008670       0.09185498      -0.06760378       0.02781800       0.03647040      -0.04806179      -0.21367173       0.93351547       0.54258749      -3.97884543
H       -1.57983756      -0.23447537      -4.40149450       0.45385119      -0.09558334       0.44852051      -0.05309379       0.03445923       0.03639292       0.08018178       0.04201673       0.03262166       0.05935462       0.04234458       0.00914228       0.07693580       0.42313438      -0.07709235       0.43190540      -3.99405730
H       -0.02121475      -0.82428557      -3.77491736      -0.12512015      -0.23209392       0.01480433      -0.05257719       0.05955309      -0.05112999      -0.06739048      -0.01959615       0.07938660       0.00944443      -0.03987623       0.01413247       0.01000808      -0.12694818      -0.24423834       0.02349530      -4.02288633
H        0.77017486      -3.06919479       3.40086341       0.03372444       0.39825356      -0.82587284      -0.05832536       0.02348045       0.02559422       0.01922065      -0.01393182       0.06690577      -0.05100043       0.05955020      -0.03363383       0.04254987       0.04249412       0.41218090      -0.85383952      -3.96987027
H        1.52724779      -2.64886045       1.84159374      -0.23132940      -0.06884471      -0.10336099      -0.05555018       0.04402567       0.04181720      -0.04579982       0.00562233       0.01645457       0.04621171      -0.04792545       0.10230956       0.01920408      -0.23765586      -0.07648330      -0.06096484      -3.98034041
H        0.44287923      -0.65943670       3.84342909      -0.24231324      -0.03024300       0.69117099      -0.05122030      -0.03336539       0.00303305      -0.07183495      -0.01885149       0.00251667       0.04454315      -0.07143131       0.01346631       0.01255745      -0.24316419      -0.02440261       0.69037198      -3.97496651
H        2.15293360      -1.06222129       3.63512182      -0.10725639      -0.23588847       0.09874387      -0.06213774       0.06996520       0.02822689       0.04876511      -0.00622817       0.04864919      -0.04535953       0.05982207       0.00020417       0.03001711      -0.11057345      -0.25704369       0.10793569      -3.95551064
H       -0.03782380       1.60110438      -4.15858221       0.35599720       0.14864957      -0.49918851      -0.06648293      -0.00502919       0.01304347       0.05863628       0.03926024       0.03062487       0.04526962      -0.02701364      -0.03112040       0.07552680       0.39291052       0.16055941      -0.46824817      -3.97687267
H       -1.33400714       1.87276781      -3.05075002       0.43180755      -0.43741933       0.23429309      -0.04753328       0.08785750      -0.07112513       0.02441685      -0.06216676       0.04397857       0.00782012      -0.01656447       0.08320401      -0.09422581       0.43330978      -0.44184732       0.20083014      -3.97037510
H        1.85311389       0.92893755       2.58807921      -0.21145171       0.15361728      -0.36466908      -0.04925489       0.02821113       0.04107694       0.06671034       0.08485963       0.07687365       0.07275528       0.02287229       0.00563854       0.00275927      -0.22270494       0.13867545      -0.37238454      -3.95921989
H        1.96049547      -0.24052423       1.30987477       0.14284249      -0.02351549      -0.50057578      -0.05121819       0.06498251      -0.03192866      -0.01845181      -0.00372482       0.01200821       0.02420539      -0.04853826      -0.00065455       0.02714380       0.14684557      -0.00278564      -0.47043681      -3.99636110
H        0.87476408       2.37762928      -2.21679735       0.51270169       0.62899202       0.33357882      -0.05802461       0.03367137       0.00693989      -0.04265789       0.00700726       0.04029673      -0.01275118       0.00033743      -0.00405460      -0.01293890       0.55992731       0.66414949       0.36859877      -3.98887891
H       -0.62094939      -0.08174115       1.10247612      -0.37020433      -0.42913386      -0.07337386      -0.04695978       0.03624425       0.02713391       0.03454461      -0.03109726       0.02093881       0.07736616       0.03142376       0.04711666      -0.02381485      -0.38413409      -0.42149046      -0.06948877      -3.99618000
48
Properties=species:S:1:pos:R:3:original_dataset_forces:R:3:LES_q:R:1:LES_BEC:R:9:forces:R:3:energies:R:1 original_dataset_energy=-211.23544311523438 energy=-211.28318840213927 stress="-inf -inf -inf -inf -inf inf -inf inf inf" pbc="F F F"
O        1.36629605      -1.13816464      -3.93376184      -0.04094693      -0.94536591       0.32818079       0.29472885       0.58274227      -0.36539763      -0.02518876      -0.26745869       1.00880633      -0.42897896      -0.12505974      -0.17652989       0.90069230      -0.05208845      -1.02745553       0.31405696      -4.63279417
O       -1.29340363      -2.09603024       0.79243320       0.95221698      -0.85201043      -0.17513187       0.32739672       0.99834154      -0.05379745       0.15009436       0.05647812       0.65409471       0.04749401       0.44103317      -0.01205160       1.32601126       0.95220725      -0.85828299      -0.23231528      -4.58921231
O        1.92397738       0.07562071      -1.37205887      -0.00966065      -0.70922416       0.09680276       0.25134048       0.75114681       0.20713939      -0.46513479       0.37211106       0.98357794      -0.11815395      -0.35868166       0.13182262       0.83196590      -0.05719019      -0.69100560       0.13776760      -4.65571674
O       -0.41484714       2.88968873       0.85330647       0.08406164       0.45996094       0.19626044       0.22566403       1.26688520      -0.10449167      -0.60085547      -0.21353976       0.76263824      -0.02777513      -0.37958136      -0.36564276       0.74714717       0.05666909       0.53232862       0.17412475      -4.81345887
O       -2.90068173      -1.63225150      -0.59833896      -0.95532298      -0.56339103      -1.12905765       0.28258389       1.50462078      -0.28988217       0.16975199      -0.37454450       0.68588213      -0.00980103       0.02022544       0.13992567       0.91299030      -1.00448343      -0.56224308      -1.10905549      -4.65202830
C        1.84436846      -2.17560053      -3.48067260       0.22524871       1.94884300      -1.50300550      -0.06005255      -0.59470594       0.49694240       0.37028992       0.33963053      -1.07514647       0.70446296       0.42010866       0.41596376      -1.62796391       0.22882388       2.02992065      -1.51224392      -5.32620465
C       -1.73846865      -2.03303075      -0.38283214       0.45092428       1.55562556       0.61402774      -0.09433225      -1.76968169       0.27215413      -0.35882985       0.42973273      -0.21804025       0.16731552      -0.43874616       0.08340813      -1.65115228       0.48804443       1.53056819       0.60040765      -5.04771202
C        1.11131036      -0.61349189      -0.74277151       2.12904429       1.31465197      -1.82700408      -0.09751083      -0.74790371      -0.30923229       0.68622284      -0.36234591      -0.94099884      -0.16063943       0.71927391      -0.30146850      -1.33615657       2.14147110       1.37314058      -1.84917149      -5.23909528
C        0.62907898       2.35246229       0.46947187      -1.47868311      -0.84398341       0.38014597      -0.10060126      -1.16696633       0.35897745       0.78590358       0.28093549      -1.02897229       0.24784558       0.78317216       0.41704869      -1.06193555      -1.44327331      -0.97850469       0.37398433      -5.25218160
C       -2.92313576       0.45600599       1.53759289       1.67751849       1.07378232       1.49294031      -0.08013747      -0.92179289      -0.46818410      -0.45452949      -0.48695795      -1.32443240       0.18854643      -0.55724901       0.26202574      -1.30936606       1.74168437       1.08603183       1.43217964      -5.37575546
N       -3.36326480       0.86851519       0.38648325      -0.09001005       2.35995698      -1.91403854       0.15616801       0.25817951       0.02531717       0.33597040      -0.23854447       0.54475957      -0.09902051       0.35945779      -0.15833143       0.87701211      -0.11548625       2.33199809      -1.96748286      -3.98431682
N        1.27450514       2.74189043      -0.60768634       2.07810712       0.05773917      -1.36634088       0.12110423       0.53828115      -0.12031137      -0.31538133       0.06590242       0.62164151      -0.31207197      -0.50719309      -0.25960591       0.84709534       2.05637791       0.10395302      -1.42869909      -4.69224489
N       -2.04753399       1.15536070       2.26518774       0.07370212       0.51357532      -0.17961836       0.11395869       0.88807580       0.25242126       0.28019318       0.39395425       0.61606273       0.07737313       0.42671286       0.09432292       0.73044774       0.01275202       0.51386015      -0.24108846      -4.50078341
N        1.55745578      -2.66252995      -2.27366495      -0.17786495       0.07850560       1.88320649       0.10215616       0.59041980      -0.20350278      -0.51421207      -0.15265387       0.54793288      -0.11794328      -0.38179968      -0.14716455       1.28976969      -0.23926088       0.09314205       1.99800464      -4.82451049
N        0.64203870      -0.12183529       0.41145498      -1.02126157      -0.52839845       0.44309747       0.12309130       0.44572758       0.14468874      -0.20043488       0.06195118       0.81933192       0.38100457      -0.28051475       0.23015965       0.99954498      -0.97546443      -0.55986691       0.40894141      -4.72685148
N       -3.38229704      -0.67758864       1.91276026      -0.63489228      -3.01013494       1.83508074       0.15044467       0.48593611       0.30499499      -0.07111151       0.20401096       0.91966954      -0.16617381      -0.19314522      -0.25051153       0.64007460      -0.65229536      -3.11054334       1.94505537      -4.08079053
C        2.90979576      -2.93036342      -4.26286650      -0.85195607      -0.74273163      -0.06559679       0.10462704       0.03552673      -0.13927805      -0.12316720      -0.09268302      -0.03610047       0.01629247      -0.09427048       0.03151052      -0.03661816      -0.87012841      -0.72837639      -0.07811635      -4.63756346
C        0.85520053       3.86432624      -1.42486477       0.61543775       0.60774708      -0.24986374       0.06347626      -0.15331305      -0.00921613      -0.02142783       0.01154494      -0.45553845       0.20883403      -0.02948373       0.18883332      -0.27181098       0.57863933       0.59122780      -0.22236226      -4.80792532
C       -1.28596091       0.72726291       3.47473907      -1.20320261      -0.63839400      -0.16562454       0.00950067      -0.31081463       0.02649209      -0.10275125       0.01727127      -0.19389935       0.11163201      -0.16332408       0.04956006      -0.44221064      -1.14234845      -0.62911587      -0.10069620      -4.92831989
C        0.07789046       1.37327695       3.58718967       0.01619928       0.12644206      -1.48702002       0.09797073      -0.12696032      -0.03627573      -0.01622966       0.00142388      -0.12014798      -0.08895248       0.04845618       0.05367813       0.06344980      -0.01679114       0.06691145      -1.46769881      -4.78503283
C       -0.77691281      -2.14598608      -1.60090137       0.18722165       0.36724058       0.71105999       0.07255097       0.02250582       0.03606369      -0.09923406       0.02915401      -0.01025637       0.05236762      -0.17203773       0.03498806       0.15022396       0.13236585       0.35272091       0.62028492      -4.74901775
C        1.17300355       0.86394495       2.62499404       0.13650951      -0.17019147       0.22866926       0.09752442      -0.07628838       0.01395720      -0.03717822       0.03436227      -0.09166868       0.03566940       0.03851302       0.01704974      -0.17986705       0.20108919      -0.09354681       0.20418018      -4.63608322
C        0.72548139      -2.02957153      -1.22799516      -1.01451349      -0.79702747       0.50307399      -0.01599979      -0.40476996       0.27737654       0.26000783       0.10947808      -0.09068701      -0.09510692       0.16789921      -0.17301492      -0.48639399      -1.02188061      -0.75248073       0.55767947      -5.06385819
C        1.17835903       1.05454540       1.07938981       0.14654726      -0.31029850       0.18656814      -0.01573931      -0.18612203      -0.18816808      -0.13331025      -0.12074120      -0.29405113      -0.16197270      -0.13768599      -0.20888184      -0.40372093       0.12456381      -0.19508257       0.29858932      -5.10728421
H       -3.57222939       0.11366683      -0.25842124       0.05764667       0.12301335      -0.30118200      -0.14343216      -0.16243869       0.12337448      -0.03125855       0.07666011      -0.53710346      -0.12506561       0.03859190      -0.13118610      -0.23085429       0.04249757       0.12902121      -0.27733249      -3.64788331
H       -2.94135451       1.72363615       0.03575641      -0.26044911      -0.48982328      -0.23754962      -0.18056379      -0.16916865      -0.04969587      -0.01397983       0.02737339      -0.28992590       0.02249581      -0.13368253       0.06287029      -0.20528388      -0.24267768      -0.43631597      -0.24316418      -3.55219674
H        1.97871923       2.10120106      -1.02551305      -0.88914776       0.43954706       0.69153631      -0.18535957      -0.28607946       0.00361556       0.05407858       0.08501881      -0.44192135      -0.12510862       0.05199883      -0.10848311      -0.19837747      -0.88566363       0.43273437       0.67903326      -3.65421713
H       -1.75256908       1.98401213       1.75053144       0.75605345      -0.02899382       0.66319156      -0.14654686      -0.53498880      -0.09998643       0.23062837      -0.24785954      -0.35934262       0.11369809       0.14159134       0.15005862      -0.24767598       0.71472891      -0.00745412       0.61980040      -3.79592036
H        1.97119689      -3.55112171      -2.04356170      -0.03441010       0.27078110       0.21072069      -0.21088542      -0.22136168       0.04991003       0.01270550       0.03492731      -0.29886249      -0.03297487      -0.05361881       0.06189128      -0.13281852      -0.03017114       0.24985857       0.18859090      -3.57859150
H       -0.07301289      -0.67719138       0.84431034      -0.37581638      -0.28617421       0.50939995      -0.15929972      -0.32337580      -0.24998528      -0.00648496      -0.25136267      -0.42090040       0.06106182       0.00958393       0.02649535      -0.19204514      -0.35284574      -0.37185857       0.48562383      -3.83098138
H       -3.53703785      -1.27628160       1.10098457      -0.15794308      -0.44027221      -0.07132410      -0.13072731      -0.27557352       0.01098486       0.14656182       0.17567500      -0.22311444      -0.20662195       0.17595945      -0.13683804      -0.53605683      -0.07797752      -0.33511179      -0.03136067      -3.59905593
H       -2.79393387      -1.13715470       2.58910251      -0.23234361      -0.25054628       0.01778217      -0.16759673      -0.27741195       0.00878224       0.03387820      -0.03754753      -0.23852253       0.06575134       0.04900278       0.01853377      -0.29936517      -0.29155433      -0.22941085       0.03387446      -3.48780704
H        3.66301703      -3.31434727      -3.56966472       0.06583434       0.05115739      -0.33721220      -0.04983862       0.02383869      -0.02130230       0.06358890       0.00353572      -0.04239779      -0.08690340       0.03995207      -0.01653250       0.03947560       0.06784420       0.03949058      -0.33403180      -3.98777745
H        2.41569877      -3.80371165      -4.77795219       0.67259747       0.92943239       0.31706676      -0.04825059      -0.00611357       0.04872902       0.04274765       0.02594429       0.06296378       0.05271665      -0.02016054       0.08683137       0.05765423       0.67384785       0.92091775       0.33048603      -3.98628017
H        3.31870389      -2.20687389      -4.97421980      -0.01659807      -0.50836420       0.11526635      -0.04673130       0.03521544      -0.02380081      -0.07449202       0.01548153       0.03707963      -0.02525515      -0.05510203      -0.01506238       0.04322435       0.00159337      -0.50824209       0.11073279      -3.97349599
H       -0.07658702       3.60961986      -1.87666631      -0.80756426       0.08858770      -0.38258618      -0.04802899       0.04777604      -0.02757033       0.05762492       0.01695073       0.01405504      -0.00778964       0.01957645      -0.03351671       0.00571095      -0.79886616       0.08127512      -0.36237959      -3.97536100
H        0.72461724       4.76904345      -0.81287098       0.04917320      -0.39053154      -0.23172502      -0.04468441      -0.01658886      -0.02168346       0.00025142      -0.00164992       0.13626288      -0.02054393       0.00305475       0.06918590      -0.00507518       0.06337655      -0.39341407      -0.23282307      -3.98730771
H        1.57668734       4.08410358      -2.25707245      -0.49930823      -0.43652013       1.07039034      -0.05048962       0.01593245       0.04567883      -0.06310722       0.01967578       0.05998601      -0.05449247      -0.04698310      -0.09689964       0.07345240      -0.48827167      -0.43712237       1.09079424      -3.97131119
H       -1.89828241       0.91162294       4.37556076       0.29900953       0.23584929      -0.39089456      -0.06093159       0.03784527       0.01030417       0.00524267      -0.00652174      -0.01234598       0.01542605       0.02460741      -0.03064928       0.04378253       0.29899176       0.22072414      -0.39581605      -3.97846795
H       -1.16078067      -0.36719596       3.46609354       0.00620642       0.26409420      -0.30174020      -0.05258961       0.02905636       0.02392978       0.04124182       0.00890112       0.09324638      -0.00131847       0.02808538      -0.01626715      -0.01208302       0.01238819       0.26685798      -0.31725801      -3.96227732
H        0.47536576       1.18722296       4.56509542      -0.03545115      -0.03707152       0.61595488      -0.06362363       0.04702510      -0.00647083      -0.00952260       0.00920870      -0.01551006      -0.00409379       0.04103441       0.01117790       0.11447436      -0.02785771      -0.05027431       0.60255418      -3.93169053
H       -0.01338542       2.43619108       3.44580317      -0.13272174       0.47955686       0.16685326      -0.05240016       0.00123478      -0.00894488      -0.03773602      -0.02206018       0.10213141       0.02081978      -0.02491083       0.00074643      -0.08336453      -0.13267548       0.48437648       0.15119106      -3.97555892
H       -0.97142339      -1.30298615      -2.25266504      -0.46046013      -0.16781516      -0.30205461      -0.05041212       0.01125778      -0.02772015       0.00241661      -0.02174371       0.04787728      -0.03863450       0.02734454      -0.02150726       0.06775702      -0.42777616      -0.13312269      -0.29134230      -4.01423999
H       -0.95328456      -3.08217001      -2.13092089       0.03788690       0.17104056       0.00167340      -0.05514421       0.00241874       0.01851501       0.01337997       0.01250564       0.02355817       0.05467980       0.03626897       0.10236473       0.05205749       0.05693032       0.13173354       0.00447212      -4.03240461
H        2.09132266       1.32544756       2.97922873       0.06294063       0.20922525      -0.01358735      -0.06306940       0.08172407       0.04776778       0.05027370       0.02141613      -0.01430056      -0.00386349       0.01100873       0.01116056       0.04442911       0.05119044       0.17169336       0.00304564      -3.92647673
H        1.32967377      -0.19984639       2.87075162      -0.11617693       0.23193242      -0.56161231      -0.05175383       0.00894762      -0.02360545      -0.01727721      -0.03502301       0.09746104      -0.04051185      -0.02073513      -0.03942880       0.02373865      -0.13762243       0.21682517      -0.55912240      -3.93648874
H        0.84577072      -2.61539388      -0.31858394       0.11796666      -0.35315076      -0.12624690      -0.04801053      -0.03470807      -0.02373825       0.00484386       0.02709806      -0.03410346      -0.03868394       0.04913583      -0.07216701       0.05054117       0.17443566      -0.36146324      -0.15184664      -3.96882951
H        2.21084833       1.12204170       0.78830904       0.59971809      -0.45960820       0.04168051      -0.04711620       0.05646661       0.06412471      -0.00506304      -0.03507583      -0.03072836      -0.04703521       0.00231648       0.02012768       0.01747317       0.61213753      -0.50101707       0.03995227      -3.88434873
46
Properties=species:S:1:pos:R:3:original_dataset_forces:R:3:LES_q:R:1:LES_BEC:R:9:forces:R:3:energies:R:1 original_dataset_energy=-201.24740600585938 energy=-201.24938173261435 stress="inf -inf -inf -inf -inf inf -inf inf -inf" pbc="F F F"
O       -2.83827138       0.33701879       3.58521843       0.39093018      -0.54119551       0.77049023       0.28315252       0.93280682      -0.08468053       0.34602212       0.04941804       0.33212757      -0.20147410       0.02402401      -0.15337823       1.20881127       0.40498765      -0.56640372       0.83274659      -4.66441076
O        0.72533935       2.03614235       0.38466832       1.16680610       0.06493869       2.31560564       0.25145361       1.22129638      -0.07885426       0.40022090      -0.05170835       0.60159321      -0.14171174       0.06939246      -0.23092058       1.10610807       1.16480389       0.00898164       2.24619277      -4.64083868
O       -1.96682405      -1.48607886       0.69282639      -0.70315325      -0.63086462      -0.07713457       0.23751576       1.02695668       0.27411727      -0.22499438       0.52851599       1.04783153       0.04773005      -0.19795905       0.12892634       0.59075996      -0.73228989      -0.62615235      -0.08769922      -4.67497465
O        1.10255075      -3.44842148      -1.78192043      -0.33177242       1.09292841       0.65220988       0.29065740       1.08044960      -0.32934331      -0.02567177      -0.45407708       0.91025125       0.32246257      -0.18264904       0.45021744       0.61598452      -0.32134769       1.12482439       0.65886343      -4.66638288
O        0.15815291       2.37409687      -1.65635085      -0.75116944       0.40958706      -0.92400056       0.37329704       0.96932625       0.10166359      -0.23343216      -0.00979922       0.50953809      -0.21156904       0.02383174      -0.44932669       1.50759902      -0.72065530       0.44643535      -1.01102758      -4.40011163
C       -3.61118698       0.48533893       2.66947627      -0.21767814       0.13839325       1.11643660      -0.07709627      -1.36176935       0.00851984       0.05781172      -0.17704723      -0.19996285       0.49446910       0.35996077       0.34034426      -1.99412224      -0.22416744       0.17937407       1.07614455      -5.35142385
C       -0.15976439       2.16057849      -0.47635505      -0.71908695      -0.35510206      -1.60072160      -0.10293313      -1.35582015      -0.10680070      -0.16886732      -0.11589757      -0.21470461       0.30497301      -0.14715458       0.57645120      -1.93316964      -0.78820187      -0.25940848      -1.41655389      -5.03670109
C       -1.24781740      -0.50547493       0.65659016      -0.19677295      -1.34014595       0.18611856      -0.08563672      -1.77798533      -0.24955547       0.45649182      -0.36937638      -1.25860263      -0.08472553       0.39300240      -0.12911939      -0.23704695      -0.14564168      -1.30526693       0.22129940      -5.30360712
C        0.33188820      -2.61647940      -1.27654409      -0.12698200      -1.70899868      -1.64202213      -0.10345284      -1.64972522       0.38711216      -0.20726431       0.42175201      -0.80668716      -0.52500678      -0.17184523      -0.52692267      -0.68674313      -0.15268520      -1.68957541      -1.60321518      -5.24964744
N       -0.96337724      -2.56073880      -1.67987704      -0.48568234       1.76336253       0.44626337       0.14412162       1.10333747      -0.15830111       0.18594152       0.02793190       0.38117967       0.22979640       0.36312394       0.21337871       0.54303424      -0.51042822       1.76293478       0.42781114      -4.62011773
N       -3.16863275       0.85398620       1.45493031      -1.27762187       0.37715462      -2.13712502       0.11991728       1.07721002      -0.01489167      -0.65110362       0.05846053       0.36893669      -0.29851386      -0.39606103      -0.24644988       1.16857064      -1.29834287       0.37302025      -2.16740267      -4.74433551
N        0.04945362      -0.57965809       0.31734017       0.52454811       0.85604417      -0.43940473       0.10945404       1.29505838       0.14450127      -0.29927475      -0.09200462       0.58361668       0.18218617      -0.28695970       0.10159462       0.32224102       0.60286438       0.85581289      -0.45408928      -4.81789100
C       -5.12915993       0.36416221       2.82154393       0.35602233       0.48388150       0.27554986       0.10433676       0.10921633       0.02866750       0.01837798       0.04858466      -0.12744007      -0.02525168      -0.04998074      -0.00769512      -0.02391721       0.35254242       0.51312502       0.31946489      -4.65162316
C       -1.66670418      -3.28709459      -2.73523903       0.72447824      -1.49554026       0.57124949       0.06483175      -0.25717221      -0.01045499      -0.10260555      -0.11561479      -0.19263609      -0.10353604      -0.25095710      -0.21817221      -0.41870693       0.73412320      -1.49667883       0.58148967      -4.77918799
C        3.05083036      -0.46405005       0.54076570      -0.25697973       0.51562750       0.69891661       0.09023589      -0.17203521       0.06849120       0.03107848      -0.04205845      -0.05129794      -0.01019746      -0.04949624      -0.01994050      -0.09707333      -0.24558234       0.47784677       0.61688864      -4.73500909
C        4.17019749       0.45451814       0.02933207      -0.51094204       0.32368031      -0.90314400       0.09531425      -0.04508772      -0.02876530       0.07373007      -0.02416286      -0.14267447      -0.02382813       0.10698010      -0.00192466      -0.08530041      -0.51796626       0.33592878      -0.93307567      -4.68626475
C       -1.61590266       1.87847900      -0.10188297      -0.04924352       0.79781961       0.92920947       0.06383727       0.27025035       0.03103147      -0.09835779      -0.01816102       0.00416774       0.00627940      -0.09499621       0.01950494      -0.08032926      -0.15127378       0.79942284       0.89130329      -4.82008430
C        2.24190307      -1.13974059      -0.53975093       0.12775083      -0.40180907      -0.76954597       0.08827066      -0.08737044       0.05080707       0.01543557       0.00652973      -0.08299643       0.03387941      -0.02798433       0.07996305      -0.10921677       0.12352628      -0.40984164      -0.80468374      -4.70435617
C        3.82831120       1.94616914      -0.12083599       1.12429786      -0.99667454       0.01716303       0.02212816      -0.28818539       0.10962308      -0.18758225       0.12061034      -0.19124691       0.05554734      -0.10584767       0.10738740      -0.37081750       1.13512333      -0.95147704       0.01749142      -4.79277023
C       -1.78876281       0.84600049       1.02623701       0.77184170       1.65428889       1.13033354      -0.01295657      -0.60787013       0.06439003       0.20195706       0.12799428      -0.09277900       0.02046325       0.07639267       0.07768140      -0.26819500       0.68315808       1.60395267       1.15277633      -5.16312439
C        0.85941988      -1.70860386      -0.14205357      -0.19884238       0.08180638       0.44184518      -0.01571633      -0.40977153       0.09820008       0.17328320       0.21255617      -0.34320886      -0.03041598       0.24151503      -0.08807446      -0.15909823      -0.23494504       0.01650082       0.45000663      -5.12531186
N        2.86180401       2.21325660      -1.19364119      -0.45916873       0.11200941       0.75157964      -0.00068677       0.43115368      -0.05882544       0.05178551      -0.11318176       0.19448944      -0.02594480       0.10862398      -0.04947033       0.30824654      -0.51823350       0.05187354       0.80255745      -4.28890498
H       -1.59101391      -1.98800206      -1.11943102       0.47234219      -0.31359512      -0.02491012      -0.15807484      -0.23743875       0.05076951       0.11963128       0.05737638      -0.26093534      -0.13475375       0.11628937      -0.17076704      -0.52550034       0.48820536      -0.31913480      -0.01350222      -3.74377433
H       -3.89887881       1.17827272       0.79878974       1.06811428      -0.66287673       0.46149659      -0.21216729      -0.27461075       0.06194085      -0.01298088       0.01537176      -0.21690146      -0.00863050      -0.08705129       0.00857169      -0.17344669       1.10629070      -0.64890160       0.44898773      -3.53424512
H        0.54278839       0.31180859       0.40777117      -0.15510370      -0.43955365      -0.04111033      -0.13247031      -0.20515798      -0.11808911      -0.02900697      -0.08378449      -0.58659265       0.03014410      -0.02252516       0.01790448      -0.13088854      -0.19335625      -0.50005170      -0.00084128      -3.76648617
H       -5.46941376      -0.12941128       3.74399590       0.60535610       0.50981516      -0.21213982      -0.04492227       0.03480428       0.02330858      -0.04637559       0.02044062       0.00528919      -0.04499660      -0.02525935      -0.04654095       0.05132559       0.60750179       0.48547620      -0.21441729      -3.99414636
H       -5.46896553      -0.24477631       2.02228928      -0.53523141      -0.43562385      -0.88405019      -0.05092150       0.00689509       0.02177376       0.02091267       0.00761512       0.00924833       0.04297315       0.00571934       0.04310999       0.05534270      -0.55095964      -0.43036897      -0.89301731      -3.95703836
H       -5.56749773       1.36873150       2.72181726      -0.00486737      -0.39492524       0.13209291      -0.04926327       0.04741480      -0.03782597      -0.01629084      -0.05707005       0.07003460      -0.00237193       0.00075802      -0.01815024      -0.01545552      -0.01255277      -0.39882033       0.12046123      -3.98833200
H       -1.00017548      -3.61197209      -3.54984879      -0.18869472       0.35893488       0.44378588      -0.04502194      -0.01809139      -0.03667145      -0.07751265       0.00862264       0.01689222       0.05261395       0.01633591       0.09935545       0.08684110      -0.18141487       0.36880463       0.44660803      -4.00044722
H       -2.08067322      -4.20294619      -2.26822615       0.13099118       0.27039519      -0.46656999      -0.04828432       0.00548661       0.06694903       0.02762701       0.06479877       0.07500454       0.01813888       0.00910684       0.00894685       0.03427484       0.12854253       0.27057974      -0.45967390      -3.95120835
H       -2.51434135      -2.73087716      -3.12819338       0.28793100       0.32882759       0.09617355      -0.05487320       0.05520414      -0.01088373       0.06697851      -0.03254262      -0.00679862      -0.01558265       0.07862591       0.06658931       0.06269792       0.28505960       0.31917773       0.09034641      -3.99495162
H        3.55278492      -1.22862327       1.13571286      -0.39837751       0.07518714       0.24188480      -0.06353006      -0.01702724       0.00247563       0.03189985      -0.01874649       0.04666070      -0.06043028       0.06776891      -0.04734719       0.03788617      -0.41242601       0.09509804       0.25834314      -3.94526893
H        2.35768390       0.12405294       1.16504002       0.58254135      -0.23716588       0.15996040      -0.04170514       0.02720824      -0.03608424      -0.08013022       0.01754809       0.01059104       0.06497855      -0.03693077       0.02642443       0.04979517       0.58158408      -0.24630399       0.20166984      -3.94508863
H        4.55696678       0.09525895      -0.93730611       0.00334721      -0.07381965       0.29548678      -0.05453670      -0.00897100       0.00613052      -0.05544560       0.02646597       0.04732006       0.03860891      -0.07871865       0.03750072       0.07885862      -0.00522069      -0.06671106       0.29839530      -3.95015449
H        4.98011875       0.43577111       0.73035079       0.52195013      -0.08839205       0.29562569      -0.06475890       0.09346935       0.00072689       0.05534239      -0.00257525       0.01508207      -0.01205395       0.00574298      -0.03143325       0.02428757       0.51409701      -0.08693615       0.29666623      -3.93316984
H       -2.07137060       2.79875326       0.29911265       0.33147100      -0.11511051      -0.23708755      -0.04937800       0.05366742      -0.07740422      -0.02546881      -0.07125750       0.07174019       0.02790204      -0.00700065       0.00378005      -0.00238234       0.33332359      -0.11435189      -0.22269441      -3.96573419
H       -2.18607640       1.63051677      -0.98005122      -0.05097409      -0.29730085      -0.39071557      -0.05494571       0.06970581       0.01313996       0.05451119       0.01579742      -0.01367060      -0.00449904       0.05576458      -0.00166237       0.08048032      -0.04688855      -0.31803416      -0.39441023      -4.00865799
H        2.14635348      -0.44921765      -1.38404751      -0.46222132      -0.08067340       0.01410466      -0.05101323      -0.00357593       0.03083912       0.01574654       0.06050836      -0.00405821      -0.08546708       0.01272750      -0.05668424       0.07326478      -0.38820173      -0.08605130       0.00564750      -3.98314830
H        2.85179329      -1.94932246      -0.92031044      -0.19447805      -0.27926171      -0.20715480      -0.04521481       0.06720830      -0.10046380      -0.06658029      -0.05802885       0.02294188       0.01601365      -0.09084067       0.04628040       0.01825636      -0.19072194      -0.27786170      -0.16701105      -3.92732882
H        4.74529123       2.48899841      -0.35719883      -0.13457310       0.00748757       0.10433847      -0.06159495       0.08360579       0.06100182       0.01117374       0.04173004       0.03675293      -0.01338592      -0.05359557      -0.04843902      -0.01541390      -0.11620194       0.01666494       0.11262195      -3.95254268
H        3.44334960       2.27853584       0.82980442      -0.44627324       0.44495997      -0.05091570      -0.05542335      -0.13970944      -0.08182416      -0.01968287      -0.00170514       0.00422315       0.01318655       0.02822587       0.05097128       0.06188812      -0.44898671       0.43851785      -0.01951954      -3.97101015
H       -1.18285286       1.17466378       1.91250277      -0.45386082      -0.13938892      -0.83736312      -0.04109512       0.03171043      -0.03443207       0.05031426      -0.06443915       0.00710761       0.04289280       0.09308191       0.03479889       0.01805027      -0.43654445      -0.16644228      -0.85804253      -3.97096251
H        0.97282463      -2.40724182       0.69778848       0.15793136       0.07943465      -0.13744277      -0.06289093       0.01525579       0.02083449      -0.00965945       0.00873329       0.05312125      -0.00853546      -0.01641872      -0.03520008       0.04113822       0.17025161       0.06436742      -0.15045041      -4.01193035
H        3.00902224       1.74817324      -2.06382227       0.51017237      -0.29219770      -0.66901815      -0.20049430      -0.24359112       0.00472524       0.04204718      -0.01178080      -0.23840308      -0.02241640       0.00046656      -0.06094255      -0.28082907       0.48367442      -0.33717756      -0.69214520      -3.34828172
H        2.74595952       3.19826651      -1.34078455      -0.01308271       0.57137662      -0.36124206      -0.19311610      -0.32093377      -0.07918913       0.02166270       0.00965467      -0.31200595       0.03673235      -0.02635258       0.02247515      -0.20262518       0.04133428       0.61074024      -0.37292272      -3.31041562
H        1.90287471       1.95717621      -0.89023149      -0.54176623       0.00287696       0.46401608      -0.10108100      -0.62679807       0.00160069       0.10830478       0.02800289      -0.08213880       0.01332705       0.14912351       0.07640359      -0.33546496      -0.39575756       0.08249131       0.36161176      -3.50900222
45
Properties=species:S:1:pos:R:3:original_dataset_forces:R:3:LES_q:R:1:LES_BEC:R:9:forces:R:3:energies:R:1 original_dataset_energy=-204.53030395507812 energy=-204.53240257033664 stress="inf inf inf inf inf -inf inf -inf -inf" pbc="F F F"
O        0.34228623       4.28494263       1.82893348       0.65547884      -0.25100690      -0.87491614       0.29881039       0.56438312      -0.25023551      -0.32265443      -0.01136658       1.24564987       0.33916036      -0.25246438       0.53084374       0.75262856       0.62180233      -0.21043732      -0.84339909      -4.64435635
O        2.37674165      -1.31567979      -1.18209493       0.87611198      -1.28832531      -0.15965500       0.33268023       1.03369983      -0.51625481       0.34551386      -0.45451705       1.08599204      -0.03254065       0.40503398      -0.22179321       0.90456883       0.87316647      -1.23558084      -0.14837358      -4.60241047
O       -1.58339453      -0.57231432       1.67288351      -0.29674116      -0.65141678       0.70591253       0.25741425       0.57502208       0.22084695      -0.19062591       0.30677466       0.89045479      -0.54157020      -0.04305656      -0.22284175       0.89497587      -0.33165482      -0.58899250       0.73801198      -4.75965084
O       -3.83743119       0.13494098      -1.30468547       1.69733322      -0.76098216       0.12419861       0.30342656       1.07231923      -0.43865179       0.06133701      -0.07462951       1.21165319       0.13198230       0.10107702       0.09206549       0.38169394       1.71325624      -0.74956818       0.13921474      -4.56737800
O        1.47911024       0.69973248      -1.12725425       0.18094420       0.09785179      -0.36280808       0.28285566       0.65778500      -0.10770391       0.05593246      -0.50460836       1.45042563       0.62066920      -0.21663676       0.55910239       0.99323757       0.25387799       0.13417477      -0.34735655      -4.71856294
C        0.89415443       3.52819920       1.02151740      -0.25124082       1.22893107       1.59682715      -0.07380196      -0.64382208      -0.11762008       0.49793364      -0.28906143      -2.19783543      -0.46720446       0.47044764      -0.47141399      -0.70384175      -0.17634220       1.17113437       1.52718678      -5.32557649
C        1.56899190      -0.47593307      -1.58385742      -1.04808462       1.51213181       0.58929765      -0.05329234      -0.97873514       0.52226158      -0.53452736       0.77413218      -1.85857149      -0.51421562      -0.44987810      -0.28750159      -0.84003750      -1.03008935       1.49722446       0.63902917      -5.20020680
C       -1.13031149       0.38359129       1.06494474       0.84701723       0.41396457       0.42956024      -0.10056689      -0.39994074      -0.51485801       0.14688196      -0.57570802      -0.96067748       0.42377202       0.11330748       0.24937716      -1.63099218       0.90976613       0.41528735       0.40343105      -5.28367533
C       -3.01236105      -0.79561317      -1.34117305      -3.15410399       1.81054866       0.34696540      -0.10247882      -1.20818682       0.09827092      -0.15162673       0.04181619      -1.72283167      -0.18069614      -0.15125781      -0.19549294      -0.14637559      -3.20705858       1.81206925       0.36658551      -5.15655542
C        2.49466467      -0.06766233       2.00604320      -0.73565364      -1.10857284      -0.42375237       0.01022636       0.07268388      -0.22411073       0.00315749       0.10190527      -0.10487861      -0.02419971       0.12660391       0.03503323       0.01078899      -0.72662900      -1.08202160      -0.32267910      -5.37496072
C        1.31693316      -0.22159505       2.65474963       0.15154737       1.53982747       0.07510889      -0.03481985      -0.25747748       0.16196330       0.10870756      -0.04829805      -0.26219928       0.04684237       0.15281135      -0.18852262       0.11226352       0.13223967       1.48589453       0.11135509      -5.40067724
C        1.74297118      -2.12079740       1.66930366       1.59405124       0.50188476      -0.37244293      -0.13088487      -0.46051129      -0.05254878       0.17167804      -0.09752597      -0.08189010      -0.02040411       0.13395134       0.05993979      -0.39367344       1.57149239       0.48244087      -0.27987645      -5.57180907
N        2.77826738      -1.28399611       1.39054549      -1.46209145      -0.54070133       0.14148384       0.02327066       0.38904619       0.11705579      -0.25108711       0.05990931       0.08035182       0.04272181      -0.09554062       0.02861809       0.30750481      -1.42007210      -0.46326468       0.10905012      -5.05251992
N       -3.51301503      -2.03995371      -1.53909445       0.68931389      -1.06463933       0.33267167       0.16800275       0.64326745       0.34226286       0.08068215       0.03362409       1.16651643       0.11792888       0.08595956       0.17674299       0.24977330       0.71808837      -1.09309469       0.32516809      -4.48856897
N        0.57203579       2.23767495       0.96479738      -0.74603838      -1.59553349      -0.46151164       0.13001992       0.54305600       0.50092878      -0.12796460       0.33274506       1.58080113       0.15172921      -0.18999002      -0.02445459       0.66489978      -0.75124841      -1.56886260      -0.41708373      -4.75397286
N       -1.15192056       0.47645158      -0.24950129      -0.24234413       0.27566513      -1.05255425       0.11678839       0.27931892       0.17542156       0.04616357       0.15736215       0.45982890       0.09324861      -0.02541402       0.03891959       1.33141434      -0.30434827       0.22290791      -1.11235219      -4.80479270
N        0.93590736      -1.54205775       2.55806541      -0.57068479       0.04139290      -1.32041550      -0.00264422       0.43551067       0.01455577      -0.13247768       0.06312516       0.24139234       0.03605252      -0.37598373       0.06864387       0.15362747      -0.59939933       0.02085576      -1.39904525      -5.17696256
C        2.05226517       3.91284657       0.11159611      -1.37246120       1.52501690      -0.52262503       0.10176428       0.01974916       0.03023358      -0.12890737       0.02728863      -0.10553986      -0.04052359      -0.15750330      -0.12625413      -0.03366465      -1.34452675       1.53559141      -0.50380106      -4.67512447
C       -2.75467491      -3.26321530      -1.77063084      -0.50132328       0.98570150      -0.50121403       0.04402145      -0.22935435       0.12769859       0.02114550       0.19722145      -0.43503985      -0.01825760       0.05645699      -0.01853733      -0.15295816      -0.47764227       0.92424556      -0.52819268      -4.86903745
C        0.53155053      -0.86626297      -2.63945556       0.03182648      -0.14771347      -0.41129962       0.09101034       0.00214133       0.09769503       0.20946991       0.07681307      -0.02909698       0.08953648       0.13777575       0.05936716       0.04626295      -0.00003314      -0.10164360      -0.41275368      -4.80574064
C        0.43023527       0.92714673       2.99673462      -0.93629801      -0.35707691       2.09732985       0.05025417      -0.09490079      -0.00517403       0.05340737       0.00136815      -0.09362999      -0.08037085      -0.03096969       0.02962256      -0.26096326      -0.93638247      -0.37271424       2.02694533      -4.91118532
C       -0.89551789      -0.30527282      -2.49913859       0.93596405      -0.13664725      -1.00577486       0.09287767      -0.11295709       0.00603345      -0.02100269       0.03201218      -0.13090340       0.02890241       0.04419927       0.00797785      -0.14576475       0.91209778      -0.16667269      -1.05476597      -4.76514079
C       -0.36862719       1.52753067       1.83826494       1.04721880      -0.85840195      -1.51899791      -0.01147801      -0.28018324      -0.08076316       0.10720817      -0.07166215      -0.25532138       0.13945350       0.11523879       0.14552921      -0.44561735       1.10534750      -0.94150835      -1.45856764      -5.09783240
C       -1.52356362      -0.60869217      -1.17799163      -0.19883239       0.61483508       1.17375624      -0.03830293       0.01718985      -0.00236561       0.02776499       0.01178162      -0.29061986      -0.14713667      -0.08536953      -0.15188423      -0.51692541      -0.19992209       0.60002828       1.17162384      -5.18923682
H        2.91619420       0.86419111       1.72468638       0.68236631       0.20703088      -0.01175470      -0.07266395      -0.10176006       0.00911691      -0.07033924      -0.01692893      -0.06020525      -0.02266005      -0.08383217      -0.00369582      -0.12735503       0.67086139       0.23951935      -0.04603706      -4.18596649
H        1.52238655      -3.02491593       1.12657142       0.31372237      -0.10630778       0.32597333      -0.06521388      -0.05128722       0.00129813      -0.00265947      -0.02889346      -0.02868628       0.01544406       0.04140310      -0.03519636      -0.02346702       0.27328257      -0.11009917       0.28144076      -4.23901710
H        3.25929332      -1.33753395       0.46917519      -0.47667328      -0.04563985       0.31492269      -0.17228639      -0.48199284       0.07961341      -0.13753207       0.03656666      -0.22564774       0.02134622       0.04522097      -0.03646574      -0.60222562      -0.50632303      -0.04263375       0.30103258      -3.76944572
H       -4.50754738      -2.15934467      -1.50415349      -0.08040109       0.60573089      -0.06094148      -0.19966866      -0.38648214      -0.11303310      -0.04303769      -0.14109564      -0.30540606      -0.05052541      -0.01297079      -0.01831515      -0.20442741      -0.05730729       0.61468546      -0.05100788      -3.60199556
H        1.06461155       1.67366505       0.27784804       0.07035176      -0.22684400      -0.10659861      -0.11802816      -0.21686896       0.05772967       0.12185600       0.11181297      -0.29570100      -0.29716026       0.16021854      -0.24158870      -0.48436877      -0.00559530      -0.23370235      -0.16681633      -3.84687016
H       -0.59482610       1.22560072      -0.64714837      -0.27619988      -0.36215320      -0.08153736      -0.18247420      -0.38494028      -0.03690057       0.05202351       0.00701661      -0.24155997       0.05746645       0.05351203       0.00502848      -0.15147833      -0.22677509      -0.37670286      -0.00554066      -3.59906164
H       -0.04141098      -1.83297968       2.65026569       0.40542373       0.27659366       0.15913312      -0.20251925      -0.44711086      -0.02489151       0.08226046       0.03008848      -0.31145971       0.12667429      -0.03264174       0.10012314      -0.35335770       0.42441946       0.23434202       0.17152700      -3.68188185
H        1.97458339       5.01304293      -0.05353042       0.19760640      -0.86727595       0.15099464      -0.04314420       0.00691276       0.02399146      -0.01225318       0.01743279       0.10446512      -0.03242797      -0.01787112      -0.02828344      -0.00510935       0.19234423      -0.86510005       0.13155914      -3.95305943
H        1.96347427       3.41231847      -0.84987378       0.16139758      -0.13045962       0.06411725      -0.04166918       0.00968097       0.00791668      -0.01776292       0.03943791       0.02147315       0.02359382      -0.00245433       0.06601196       0.07886016       0.13552570      -0.12818191       0.05830854      -3.99012694
H        2.99661422       3.69708443       0.56250691       0.51656622      -0.23125784       0.32861584      -0.05498687       0.08046753      -0.01380373       0.02063752      -0.00649811      -0.00241566      -0.00839732       0.03899633       0.02055955       0.00388808       0.50997766      -0.22766612       0.33369492      -4.00733533
H       -2.21384883      -3.08800960      -2.68352294       0.38808176      -0.61563867      -0.49672109      -0.05617944       0.01632462      -0.02347596      -0.03887586       0.00760902       0.01861178      -0.00465647      -0.03374146       0.04016066       0.05440991       0.35959031      -0.60938969      -0.50222161      -3.95835279
H       -3.45436454      -4.08562994      -1.87219632       0.13712415      -0.04153937      -0.08657604      -0.05367092       0.03117182       0.07281315       0.02205713      -0.10895406       0.03752225      -0.02330806      -0.00676604       0.01762879      -0.03048916       0.11817736      -0.02689469      -0.07220565      -3.97271720
H       -2.05480576      -3.46662951      -0.99492931       0.45051467      -0.28335491       0.72698849      -0.05806252      -0.00224589      -0.06249049       0.02382857       0.03804786       0.05601973       0.04462132       0.00511874      -0.06562918      -0.02008803       0.40936794      -0.27425081       0.73282017      -3.97317899
H        0.48986018      -1.95075583      -2.64270234      -0.02910218      -0.17121761      -0.11983611      -0.05226707       0.02800416      -0.01167694       0.00298937      -0.03043659       0.10594454       0.00933396      -0.00979836       0.02457522       0.01856936      -0.03153700      -0.17041164      -0.13041438      -3.95462752
H        0.91942036      -0.55672997      -3.61564136       0.03175227      -0.09021431       0.13338700      -0.05381044       0.06265691      -0.01034016      -0.04902970      -0.00292301      -0.00053739       0.00345722      -0.01986860      -0.01524229       0.09737723       0.04666643      -0.08418398       0.14501073      -3.99324292
H        1.02314782       1.72813511       3.45335841      -0.16574952      -0.19444083      -0.21609429      -0.05648481       0.03447260       0.02125066       0.04274216       0.04536775       0.06099155       0.06621388       0.02994432       0.04419480       0.03552107      -0.13261341      -0.18025336      -0.23503317      -3.99742976
H       -0.29847068       0.61230522       3.76431584       0.34744716       0.10397793      -0.22532398      -0.05307220       0.04529134       0.00280522      -0.06434188      -0.00264675       0.00413004      -0.04639118      -0.04203757      -0.02546763       0.04764213       0.34130819       0.09382448      -0.20968932      -3.98287016
H       -0.91289186       0.77018946      -2.69967413      -0.07391094      -0.18915005       0.16116148      -0.04980924       0.00151476      -0.00742612       0.00653928      -0.02445564       0.11900193      -0.07102560      -0.02273307      -0.01335423      -0.02706630      -0.05141226      -0.22805493       0.16078725      -3.96428300
H       -1.50532627      -0.76289153      -3.27763581       0.06545246       0.02842122      -0.12384960      -0.05731063       0.12669419       0.00677419       0.01568254       0.01735892       0.00372755       0.02760425       0.04530548       0.01709194       0.06408610       0.07494503       0.03110348      -0.13619792      -3.95250851
H       -1.11645079       2.17790222       2.21881151      -0.38762587       0.79709208       0.35334960      -0.06314180       0.03040365      -0.05682684      -0.00985605      -0.06013474      -0.00780556       0.01172299      -0.01091831       0.01973328       0.04852460      -0.38878680       0.80751469       0.31216246      -4.04028483
H       -1.17494082      -1.54302669      -0.77003479       0.52943909      -0.25422144       0.18389793      -0.05210096      -0.04001062      -0.02738580      -0.02103826      -0.01827405       0.06350630      -0.04580621       0.00711545      -0.04495602       0.04772831       0.53809781      -0.19095736       0.19746569      -3.96768538
48
Properties=species:S:1:pos:R:3:original_dataset_forces:R:3:LES_q:R:1:LES_BEC:R:9:forces:R:3:energies:R:1 original_dataset_energy=-211.90237426757812 energy=-211.9188392240016 stress="inf -inf -inf -inf -inf -inf -inf -inf -inf" pbc="F F F"
O       -3.09604168       0.49380431       1.59734666       0.42849371      -0.10623172      -0.03897184       0.19699568       0.65753799       0.05044479      -0.28134105      -0.28148668       1.36159038      -0.20964650      -0.15803109      -0.49204560       0.69539838       0.42782196      -0.11895390       0.01533811      -4.90924099
O        1.17842162       2.35464120       1.74804389       0.15009671      -0.36402372       0.53278154       0.32798722       1.27597170      -0.15825476      -0.47388474      -0.22189137       0.80926048       0.00937801      -0.13501708      -0.09126677       1.07083201       0.11087297      -0.38403563       0.50614369      -4.62751385
O        1.82965589      -0.19020900      -1.52775741      -0.07673461      -0.03282402      -0.23131600       0.24952303       1.45077295      -0.19859849      -0.00878615      -0.18726255       0.37330306       0.00599229       0.38900210      -0.08180899       0.83332878      -0.10423560      -0.02089259      -0.20061403      -4.80142238
O        0.92987144      -2.62224293       0.80930173      -0.77658230       0.40669686      -0.38113940       0.29095948       0.67068262      -0.32144552       0.07716233      -0.07144605       1.41811831       0.00447857       0.08504135       0.11167593       0.37349597      -0.81757412       0.42987347      -0.39661752      -4.65148876
O        2.29718661       2.96142721      -0.03558120       0.81766641       0.27150467      -0.78069979       0.32132784       1.05037907       0.10729983       0.09168833       0.19669037       0.87157007      -0.48283552      -0.24909457      -0.50338587       1.18270632       0.79423835       0.25920819      -0.74007937      -4.57853531
C       -2.93984795      -0.65685534       2.00609732      -1.47166443       0.20024921       0.03363340      -0.07890681      -1.34486995       0.45717488       0.68090091       0.75368221      -1.49765006       0.06010939       0.58839491       0.25131012      -0.63056854      -1.42962585       0.19834022      -0.02597398      -5.32800359
C        2.17749977       2.26284909       0.97748232      -1.30003333      -0.19236471      -0.25390694      -0.07972818      -1.17978359       0.35849282       0.68556173       0.25415457      -0.98236203       0.57790751       0.76415965       0.73371934      -1.47973401      -1.27413478      -0.15574708      -0.27226097      -5.02463095
C        2.79048920      -0.32832330      -0.78375632      -1.36437118      -0.21846277      -0.23348762      -0.08557098      -1.98267290       0.33254922       0.14513095       0.33716934      -0.18308231      -0.04932120      -0.14882453      -0.00806695      -1.08770505      -1.34719275      -0.24478423      -0.17927965      -5.39051981
C        0.46456954      -1.48309708       0.87182748       0.36737564      -2.55948687      -0.07437214      -0.08705472      -1.07034359       0.02851402      -0.22495346      -0.17556661      -1.84236946      -0.11554197      -0.20234577      -0.22042335      -0.18158662       0.42659847      -2.53045814      -0.03968023      -5.21255790
C       -1.21837783       2.11194634      -0.59370023       0.61879700      -1.73159182      -0.67513043      -0.08472282      -1.34411808      -0.57384868       0.23427868      -0.35827808      -0.67487020      -0.50173832       0.22925260      -0.54528797      -1.30574170       0.58933220      -1.78344365      -0.76292099      -5.49534154
N       -0.08455528       2.19247031      -1.22733092       0.78502762      -0.38364494      -2.10619569       0.16026059       0.95541110       0.16594469      -0.31802112       0.18201347       0.28103664       0.07060558      -0.27316144       0.03716225       0.57473975       0.73596505      -0.37250013      -2.08063687      -3.95412213
N        4.02442122      -0.57720804      -1.22361994       2.05610299      -0.23691724       0.09694346       0.10712320       1.19654740      -0.18897177      -0.21405869      -0.23032298       0.18300157       0.06931374      -0.54850313       0.11924898       0.64802207       2.09183883      -0.22526623       0.08846972      -4.69773416
N       -2.21052766       1.36514747      -1.04192233      -1.12245083       0.20498180      -0.13581994       0.11041673       0.80234547       0.37685820       0.15972801       0.37364482       0.62776742       0.31533470       0.22824791       0.22734963       0.65416630      -1.06942110       0.29542655      -0.08436437      -4.59725172
N        1.22582245      -0.44306105       1.16461587       0.87072521       1.27192545      -0.34436285       0.11808380       0.89636845       0.49362698       0.07534153       0.30480244       0.82395526       0.14020593       0.04398878       0.21031468       0.32969512       0.85221281       1.29113559      -0.33944513      -4.74394394
N       -1.97358108      -1.49491596       1.60743296       0.63249993      -1.00519311       0.45414165       0.10593198       1.08424111      -0.27447592      -0.52426950      -0.32752322       0.66277228       0.05835753      -0.52332127       0.09765859       0.66011935       0.66533240      -0.97008641       0.48118134      -4.72605057
N       -1.28462040       2.63077164       0.58720589      -0.58642828       1.63763118       2.46309996       0.17019288       0.49253652       0.10470555      -0.02722053      -0.00876452       0.50954513       0.34384989      -0.13759366       0.50803891       0.99051293      -0.60740578       1.63642029       2.47749526      -3.93861188
C       -3.98429203      -1.27108097       2.94033003       1.00277317      -0.00447929       0.08914520       0.10901357       0.05293797       0.05011616      -0.13029988      -0.02283627      -0.03252136      -0.03850366      -0.11376626      -0.07935751      -0.01092945       1.00109759       0.00690707       0.11507446      -4.65180936
C        4.42491341      -0.82976019      -2.61882019       0.48550764      -0.12641947       1.16501701       0.05823106      -0.16785698       0.01300192       0.11470051       0.02942748      -0.16462723      -0.06337811       0.23902986      -0.07251178      -0.48714891       0.46733337      -0.14949933       1.16534270      -4.81751116
C       -2.20963812       0.39003035      -2.09747124      -0.19815396      -0.81653655       0.28039125       0.01325686      -0.10465922      -0.06537367       0.04228952      -0.09237907      -0.35686013      -0.20472060      -0.16914839      -0.14458356      -0.45385493      -0.18641450      -0.83185931       0.25001166      -4.96503680
C       -2.55584741      -0.99647844      -1.55675161       0.70661211      -0.61144149      -0.14221509       0.10231747      -0.13641816      -0.00286561      -0.01691304       0.11589318      -0.08745155       0.11123158       0.02654312      -0.00265693      -0.07460057       0.69572635      -0.64587164      -0.16947407      -4.69014860
C        3.13141894       1.09554338       1.23184562       0.76441789       0.57230300       0.24019612       0.06221943      -0.04630803      -0.19866538      -0.01579483      -0.08332674       0.13462307      -0.03692106      -0.00093492      -0.05500350       0.00459519       0.76297003       0.57277630       0.23961740      -4.79394732
C       -1.42874837      -1.73888159      -0.80051661       0.79933298       0.59706217      -0.46240237       0.09660649      -0.06959291       0.00464423       0.01397446      -0.11369282      -0.18595578      -0.06789790      -0.03817441      -0.04864823      -0.08959350       0.80033696       0.66475817      -0.48950805      -4.71297418
C        2.61591101      -0.26073688       0.73785603       0.06714977      -0.07712157       0.49023882      -0.02165189      -0.60335248      -0.15504063       0.04161452      -0.17256306      -0.24592188      -0.00520576       0.05903034      -0.02749190      -0.10238434       0.02492024      -0.06659963       0.43382916      -5.14735111
C       -1.00124562      -1.15759325       0.55773509      -0.65766752       0.17151649       0.20190890      -0.01429346      -0.22390006      -0.15952943       0.27771178      -0.09422515      -0.12423444      -0.00187975       0.27110341      -0.01171532      -0.51253840      -0.59863070       0.07836600       0.10938389      -5.14828922
H        0.68634939       2.61587334      -0.73713028       0.96424127       0.30958086       0.04481860      -0.11208338      -0.72338567      -0.15978714      -0.25839085      -0.15578286      -0.19379133      -0.04246637      -0.25293458      -0.05765715      -0.31629841       0.97228392       0.34032256       0.03223586      -3.77686480
H        0.14885738       1.56469476      -2.00594902      -0.21578573       0.71092820       0.84144706      -0.17469589      -0.25097054       0.01621424       0.03957212       0.03186760      -0.26937907      -0.01872589       0.02745805       0.00983426      -0.28163219      -0.26092510       0.68259254       0.93124886      -3.56855672
H        4.79062891      -0.66827333      -0.55456769      -0.80774337       0.09071130      -0.21437079      -0.21230417      -0.31282688       0.00472370      -0.02785758       0.04692405      -0.21348053       0.00101858      -0.00793854       0.01374089      -0.22018285      -0.82184104       0.09254546      -0.22909898      -3.55969315
H       -2.95145082       1.27384877      -0.37280294      -0.25446710      -0.19515930       0.12903999      -0.17298999      -0.27237800      -0.02992630       0.02922652      -0.00946259      -0.24807912       0.07968429       0.25024026       0.02352779      -0.43587731      -0.19173384      -0.18940051       0.08081687      -3.65071718
H        0.72235811       0.38908544       1.38194370       0.15737000       1.01089239      -0.00291001      -0.17838287      -0.09202466       0.01883448      -0.02242583       0.00067497      -0.40983448      -0.05691498       0.01061881      -0.10168563      -0.18787963       0.12755767       0.99351911       0.02131346      -3.68458936
H       -1.96007371      -2.42268801       2.05761003       0.16598421       0.90093899      -0.69513184      -0.21083456      -0.21238064      -0.03321741      -0.00051211      -0.04800578      -0.29952038       0.05834188      -0.00193946       0.04210684      -0.21205169       0.17457674       0.90090844      -0.68416559      -3.59718649
H       -0.39992264       2.98834944       0.98075402      -0.22403894      -0.37143523       0.15387204      -0.13610202      -0.59424646       0.00218542      -0.22047200       0.07358198      -0.19446265       0.00943852      -0.20982514       0.03367689      -0.25759507      -0.17791869      -0.38366985       0.12715715      -3.70801632
H       -1.98206127       2.29678202       1.25011253       0.26528487       0.14849712      -0.46101776      -0.15696654      -0.31845672      -0.09794092       0.10726339      -0.13165288      -0.37498964       0.05423527       0.02774732       0.06288239      -0.23075376       0.32022774       0.10972917      -0.43118823      -3.65335455
H       -3.50970960      -1.43987131       3.90418816       0.02528347      -0.41112864       0.05833773      -0.04960788       0.01124639      -0.00572245       0.02742237       0.02624100      -0.01064950      -0.03928845       0.00231049      -0.01993096       0.08613027       0.03002002      -0.42652657       0.06143268      -3.97342480
H       -4.78448391      -0.58532065       3.14057589      -0.30558401       0.31602189      -0.31611696      -0.04591361       0.13475158      -0.02611298      -0.07859185      -0.04751468       0.02318163       0.00884333      -0.06747474       0.00347338       0.02149141      -0.30986794       0.32614635      -0.34331814      -3.96709279
H       -4.34916735      -2.20052195       2.50694609      -0.04597729      -0.00248592       0.23243819      -0.04990262       0.00213647       0.02281459      -0.00056448       0.06721223       0.06696463       0.01122134       0.00614496       0.03572864      -0.00117306      -0.04087008       0.00520255       0.22773118      -3.99292695
H        3.52735806      -0.79604721      -3.17906475      -0.63012624       0.14341438      -0.80191225      -0.03486685      -0.03353004       0.01746265       0.12310379       0.00715816      -0.01283433      -0.01526839       0.05965648      -0.00807874      -0.01126599      -0.61929762       0.13278909      -0.80077144      -3.97588678
H        4.84647751      -1.84513235      -2.66860867      -0.09577829       0.39431599      -0.12543426      -0.05156473      -0.03285425      -0.02761926      -0.01845038      -0.09181531       0.06364245       0.06566337      -0.05377579       0.01633928       0.04266476      -0.10465379       0.39356234      -0.13778445      -3.97326101
H        5.17431068      -0.09885082      -2.96932983      -0.51477063      -0.28250125       0.16034788      -0.05354583       0.01460254       0.03321265      -0.05320925       0.08898473      -0.00006614      -0.05092672      -0.06388173      -0.00018705       0.05241963      -0.49691466      -0.26750061       0.16760941      -3.99906535
H       -1.24818861       0.27334031      -2.55378485       0.53554636       0.44046140      -0.37643179      -0.05126905       0.01634421       0.02122559      -0.09665704       0.00530022       0.03381154       0.00120101      -0.04467867       0.01174957      -0.01590379       0.51513296       0.40702301      -0.40364862      -3.95198254
H       -2.95106125       0.65765655      -2.83847570       0.02513527       0.14484221      -0.30786014      -0.06192594      -0.00157567       0.00063190       0.05896769      -0.01224979       0.02856193      -0.01649096       0.05790053       0.00246615       0.08164748       0.03639536       0.13852876      -0.30512039      -3.97872381
H       -3.41110826      -0.89308441      -0.92427242      -0.78767550      -0.17388825       0.33901832      -0.05460408       0.08641266      -0.02882374      -0.02986280      -0.00743113      -0.02418914      -0.01984193      -0.06904343      -0.01926826       0.00249387      -0.77667370      -0.17362073       0.36086741      -3.98491053
H       -2.80811834      -1.63154650      -2.42076492      -0.13494261       0.25606668       0.35948431      -0.06041498       0.02688556       0.02366054       0.04949394       0.01559684       0.06492030       0.02668168       0.06179130       0.04935940       0.07324605      -0.14283644       0.25342216       0.35214478      -3.94484949
H        4.12798834       1.32438886       0.81110859      -0.59963852      -0.24347907       0.02421664      -0.05131780       0.17488992       0.04832758      -0.02739645      -0.03119714       0.01220737      -0.03370627      -0.05197694      -0.01057735      -0.01484965      -0.59292815      -0.24160106       0.01938809      -3.99575796
H        3.24290442       1.03526354       2.29514170       0.11062338      -0.13435006       0.64367002      -0.05327491       0.01847371       0.00321247       0.01661580      -0.00079651       0.00054928      -0.00837572       0.09909271       0.02385285       0.11843656       0.11956149      -0.11669690       0.67380403      -3.95494222
H       -0.52558339      -1.73460257      -1.42529893      -0.21732500       0.02258546       0.01579551      -0.04309956       0.05719678      -0.04942194      -0.03874631      -0.00565074       0.00997888       0.02895549      -0.01464151       0.00637519       0.06911412      -0.24644683       0.01512018      -0.01193439      -3.97136987
H       -1.68558192      -2.77946043      -0.68414247      -0.14210191      -0.30934793       0.16248128      -0.05575863      -0.00921797      -0.00703206       0.01653813       0.05250756       0.14262052      -0.00622721       0.02438130      -0.02946017      -0.00924736      -0.15246115      -0.32612102       0.18391709      -3.98958232
H        3.23833871      -1.04554725       1.17449403      -0.13810858       0.04842810      -0.01437270      -0.05847324       0.04331754      -0.00489206      -0.00067743      -0.03754929       0.07297086       0.00038398       0.03011200      -0.01562806       0.02373626      -0.14816424       0.02386576      -0.00466599      -4.01513828
H       -1.04191887      -0.08652502       0.50142193      -0.13316105       0.31892115      -0.04189552      -0.04478014      -0.04426616       0.01168701       0.00107030       0.05714666       0.05322979      -0.02661022      -0.04522120       0.01513563       0.02210433      -0.22418502       0.37664582       0.01099717      -3.93607729
48
Properties=species:S:1:pos:R:3:original_dataset_forces:R:3:LES_q:R:1:LES_BEC:R:9:forces:R:3:energies:R:1 original_dataset_energy=-211.62872314453125 energy=-211.59633546107108 stress="inf -inf inf -inf inf inf inf inf -inf" pbc="F F F"
O       -1.92112970       3.75077629      -2.54551673       0.20540871       0.19811977       0.11094657       0.28974071       0.92068410       0.10823936      -0.34181995      -0.06899369       0.75932080      -0.40484547      -0.11883668      -0.53029028       0.90020279       0.18109869       0.20093122       0.10221648      -4.67824328
O        3.76340032      -1.17748916       0.55068290      -0.23529245       1.22063601       0.16039306       0.32299793       0.89158042      -0.29485527       0.25099536      -0.35874840       1.44891961      -0.04013594       0.23330685       0.19720636       0.85722732      -0.24106195       1.21216446       0.18078003      -4.62134096
O        0.43448144      -1.77202797       1.61802435       0.08103678      -0.27643830       0.51341873       0.21736436       0.41819212       0.19847477       0.20672985       0.17569306       0.89692285       0.55231100       0.15620351       0.17606143       1.42125717       0.08252614      -0.24454432       0.56324885      -4.82401100
O       -1.55771732       1.50517178       1.64107227       1.39405501      -0.67210972      -1.12776971       0.28430709       1.06339640      -0.23837895      -0.23708198      -0.14275108       0.38655807      -0.01458747      -0.46126675       0.07064221       0.93464197       1.36087559      -0.66187561      -1.09611636      -4.68072278
O        2.87505436       0.55570346      -0.55606604       0.13438539       0.18851720       0.25079769       0.28737658       0.87641148      -0.24531315       0.09200601      -0.23254556       0.97599685      -0.02754216       0.15546744      -0.32260766       1.31794603       0.13396288       0.21673422       0.27424131      -4.71163992
C       -2.74573159       3.30476713      -1.76072669       0.39408207       0.02554471      -1.49336219      -0.07569050      -1.20155706       0.23548603       0.10375785       0.30895886      -1.05402875       0.95735357      -0.05674476       1.06209603      -1.21659521       0.39025154       0.04923450      -1.50341412      -5.33233843
C        3.21484733      -0.03193837       0.50636768       0.16240063      -1.77165258      -0.19270377      -0.08098319      -0.69981268       0.73322171      -0.14425070       0.93962849      -1.59089782       0.34008482      -0.24651939       0.31109302      -1.54099185       0.17003884      -1.77880251      -0.20325397      -5.05113942
C        0.86310142      -0.98608458       2.45405960      -0.61606675       1.23340809      -1.52914429      -0.08945411      -0.26469462      -0.30775083      -0.34837083      -0.30646345      -1.07010834      -0.08916381      -0.31991013      -0.00940583      -1.93768916      -0.58679388       1.23591958      -1.55884654      -5.34880317
C       -0.71457458       1.40295696       0.73034978      -1.18756831       0.69885141       1.58227468      -0.08563282      -1.63318909       0.53106369       0.18758178       0.40791853      -0.31502010       0.15325090       0.32882035       0.08533279      -1.06747200      -1.22543797       0.68110951       1.62012717      -5.33865257
C        1.22530127      -2.22987056      -1.48736477      -1.15771115       0.72215432       0.43866849      -0.08621839      -1.54744961      -0.25762525      -0.19981336      -0.32206453      -0.71328945       0.68443090      -0.07135312       0.53282944      -1.13097385      -1.13042520       0.73939577       0.47900991      -5.39987294
N        1.89216137      -2.75070572      -0.53106296       0.81492013      -2.42950797       3.30072713       0.16528319       0.81868660      -0.15354151       0.30485101      -0.15684515       0.58389230      -0.22665782       0.31371945      -0.30672776       0.79438459       0.81218677      -2.39678892       3.19793652      -3.94778329
N        0.99437815      -1.23479617       3.76062250       0.23917904       0.80875254       0.13749555       0.09443404       0.16290115       0.11567754       0.01808709       0.03548175       0.55184455      -0.38549562       0.18872496      -0.14955238       1.24791280       0.21564004       0.80739029       0.12040403      -4.76447211
N       -0.07802865      -2.45339608      -1.60365868      -0.78682762      -0.12435656      -1.27171516       0.10570128       1.11290783       0.14485101       0.22729713       0.09901755       0.39470654      -0.12524520       0.10027008      -0.04545458       0.41267425      -0.72889116      -0.09079237      -1.25040698      -4.49591039
N        0.58273697       1.01815510       0.87556040      -1.08150291      -0.34262249      -0.31432384       0.11071306       1.15506823      -0.36287843       0.00260951      -0.27314796       0.35801945      -0.10029957       0.16653747      -0.14885530       0.52046897      -1.09514497      -0.31080410      -0.40422419      -4.85951324
N       -2.41470647       2.39918542      -0.83221257       1.13431323      -0.70579767       0.61057526       0.11944000       0.77357271      -0.51462794       0.29959533      -0.31736417       0.82539505      -0.52002259       0.20778244      -0.56336039       0.81925129       1.08654860      -0.70046049       0.57705539      -4.76650100
N        1.90057302      -1.39392066      -2.19595742       0.53713578       1.23678088      -2.71859360       0.15032372       0.54735192       0.26241447      -0.19782819       0.40468811       0.52676505      -0.41413859      -0.26234214      -0.22586305       0.69679776       0.49345766       1.22416334      -2.69078892      -3.94022165
C       -4.19847965       3.69846439      -1.89464414      -0.02640560      -1.30283475       0.33210447       0.09878080       0.13095778      -0.08594134       0.01552981      -0.10966311      -0.06222406      -0.02917611       0.02865640      -0.01280262      -0.08262963      -0.01648300      -1.31547677       0.33454368      -4.65783081
C        0.83508939      -2.54456902       4.32784653       1.61489141      -0.63885975       0.52071637       0.06339312      -0.13853202      -0.08134667       0.15258891      -0.00379479      -0.43844213       0.20348651       0.00172558       0.17518818      -0.26640478       1.59744851      -0.65003075       0.52670550      -4.80257669
C       -1.07965970      -1.74195790      -2.42811942       0.00662135       0.03580451       0.75431931       0.00844245      -0.37216415       0.14592134      -0.13269852       0.11033216      -0.33223342      -0.06141768      -0.15830718       0.01536294      -0.37273418      -0.04049578       0.01456272       0.72373958      -4.92023334
C       -1.62394142      -0.51236993      -1.69929755       0.40401924       1.09835887       0.22056194       0.09113111      -0.09293053       0.01687565       0.04254889       0.02472314      -0.10364288       0.00893205       0.01865392       0.03681833      -0.07989633       0.40883937       1.02846234       0.20981051      -4.71935324
C        2.77656054       0.58799094       1.83017707      -0.26006550       0.87214768       0.58163750       0.06363016       0.04054918      -0.04035803       0.01356588      -0.15921354      -0.00232957      -0.00181589      -0.20555546       0.08856242       0.07409511      -0.23557137       0.88349548       0.56452097      -4.78084986
C       -0.72428560       0.75284702      -1.72296643       0.44719103       0.05398275      -0.25594783       0.09178413      -0.10427933       0.01940186       0.01030594      -0.02935269      -0.06302876       0.03165077       0.00903604       0.01438858       0.02988458       0.39986152       0.06183860      -0.27353877      -4.65012225
C        1.23454142       0.48594171       2.03684545       0.08364263      -0.02387609       0.59128094       0.00256759      -0.39642728       0.13875448      -0.18318188       0.09040926      -0.10752218       0.12635062      -0.23263888       0.12318183      -0.39590007       0.09649203      -0.02138328       0.64756750      -5.06306618
C       -1.05042005       1.86523819      -0.69117010      -0.26268300      -0.44840416      -0.46168551      -0.02123313      -0.49226665       0.20417304      -0.05184814       0.20749799      -0.32275234      -0.02567783      -0.09794407       0.03974435      -0.10592426      -0.18115000      -0.46785357      -0.40241519      -5.07267347
H        1.35050273      -2.94906521       0.31749073       0.53321934       0.06801890      -0.46698186      -0.14652707      -0.23102183       0.03033868       0.16146882       0.12792155      -0.35279945      -0.14025114       0.05209623       0.04186335      -0.39143215       0.55755382       0.03844163      -0.50385208      -3.64225418
H        2.83286405      -2.36681175      -0.33099318      -0.32025781      -0.03441538       0.06502185      -0.11305583      -0.53000443      -0.18457824      -0.21323279      -0.34460428      -0.35134410      -0.16695463      -0.22782001      -0.18260727      -0.29688047      -0.34376271      -0.05175123       0.11272883      -3.73161451
H        1.35604382      -0.47645563       4.33479214      -0.21941489      -0.54502481      -0.27384555      -0.21344250      -0.21267055      -0.00584923      -0.02023818      -0.00356887      -0.21750264      -0.04508346      -0.05489170      -0.02880696      -0.30039217      -0.20846625      -0.55592274      -0.28155969      -3.55320560
H       -0.44727302      -3.18000579      -1.02676499      -0.02135533      -0.11429947       0.21128368      -0.19914432      -0.26487089      -0.04599432       0.00211936      -0.06882017      -0.24108165       0.00556965       0.04485502       0.00152438      -0.27035400      -0.05921418      -0.09722954       0.23688233      -3.58364840
H        1.17203903       1.06012630       0.06060410       0.32493180      -0.08898136      -0.20902108      -0.16036446      -0.48388780       0.04366914       0.20143655       0.03553076      -0.17517990      -0.04550345       0.26192482      -0.03949046      -0.19922754       0.37913398      -0.10506765      -0.22712638      -3.70496044
H       -3.12683511       2.03016567      -0.25730166      -0.42106652      -0.34350353       0.75697374      -0.20287976      -0.29075552       0.04837933      -0.02144655      -0.03827374      -0.17889164       0.01071168       0.01003043       0.00363045      -0.23604589      -0.41101826      -0.34233320       0.75990222      -3.62181160
H        1.44975519      -0.95410675      -2.95486546      -0.27316085       0.47783050      -0.70668960      -0.18558261      -0.20083264       0.01818725      -0.00929081      -0.07945908      -0.12840782       0.12795101       0.00817566      -0.01196875      -0.27373453      -0.31171087       0.51976469      -0.70565268      -3.53321578
H        2.62448931      -0.84970748      -1.74381435       0.33703858       0.36577111       0.29107392      -0.13047472      -0.27485886      -0.11541335      -0.06187727      -0.07062059      -0.44567876      -0.26840454      -0.02743675      -0.19301073      -0.41513040       0.35880921       0.34345957       0.28158029      -3.68918704
H       -4.85760927       2.83625031      -1.57566619       0.48755503       1.09481382      -0.65308541      -0.04561823       0.03061973       0.06419092      -0.02719495       0.07886213       0.03699738      -0.01896412      -0.01043754      -0.05219291      -0.00152585       0.50758869       1.09874280      -0.65587234      -3.97290771
H       -4.32805252       4.04555798      -2.93190360      -0.26438928      -0.28055185       0.66455877      -0.04634222       0.06323221      -0.05596654       0.02868195      -0.04113135       0.00912952      -0.04612892       0.06209656      -0.05549761       0.07886486      -0.26777820      -0.28164512       0.66668814      -3.97444480
H       -4.32827950       4.49577856      -1.19108665      -0.46043280       0.61087793       0.22577058      -0.05389103       0.00342673      -0.01241067      -0.00626110      -0.04334910       0.05219079       0.03347358       0.00387019       0.03252112       0.02049796      -0.46489554       0.61761298       0.22825311      -3.97981084
H        1.85276842      -3.07120681       4.31579351      -1.58705854       0.31691596      -0.10913444      -0.04725040       0.06909913      -0.08149559       0.03602053      -0.04516220       0.08226339      -0.08394836      -0.00252142      -0.02810437      -0.00126942      -1.59900611       0.32148217      -0.10673643      -3.94809770
H        0.06753778      -3.09185386       3.78922558       0.22308829      -0.06310777      -0.04401572      -0.04135680      -0.00033913       0.07083663      -0.04622671       0.00871302       0.01868234       0.00222895       0.02909395       0.08249579      -0.08372338       0.23039798      -0.07212772      -0.05637493      -4.00090439
H        0.54587305      -2.43902421       5.37184381      -0.09077001      -0.06847787      -0.07467464      -0.05359619      -0.03145082       0.04025667      -0.08821431      -0.00633956       0.02427564      -0.03693806      -0.01213038      -0.07569626       0.14156897      -0.08565222      -0.06328322      -0.07037656      -3.97849523
H       -0.73804259      -1.47479582      -3.43461776       0.27950224      -0.20980603       0.30085149      -0.06232361       0.03792947      -0.04694588      -0.06191674      -0.02266451       0.02605605      -0.01941333       0.00058987      -0.02960156       0.06067321       0.30104991      -0.21419174       0.30497128      -4.01123839
H       -1.88279939      -2.47167373      -2.55408287       0.07968926       0.20162736      -0.12897512      -0.05920954       0.07857009       0.02057599       0.06254892       0.03968407       0.06888955       0.04472459       0.03608638       0.02449180       0.01838492       0.05477783       0.22014157      -0.12147469      -3.95694998
H       -1.78789949      -0.70910490      -0.65445626      -0.25020310      -0.68466467       0.40880504      -0.05554917      -0.04365878       0.04366896      -0.03246373       0.01677762      -0.01744220      -0.02604112      -0.04352219      -0.03550588       0.06659930      -0.23299086      -0.67044565       0.36716880      -3.98743333
H       -2.58671236      -0.22866753      -2.13235116       0.08315890      -0.10081623       0.02431490      -0.06028879       0.11355412      -0.02449862       0.02846671      -0.05554380       0.03256782      -0.00830892       0.01530287       0.00654214      -0.02325776       0.10099796      -0.09132900       0.01973284      -3.97616895
H        3.22109270       0.08598322       2.68987846       0.27882811       0.03897534      -0.30978718      -0.05319645       0.01827681      -0.03927421       0.01774961      -0.03878357       0.00044758      -0.04041849       0.13269947      -0.01555030       0.14048630       0.29353907       0.04204441      -0.30496876      -3.99684195
H        3.05819321       1.66164827       1.85145187      -0.20440595      -0.65609211      -0.04234664      -0.05075851       0.01407861       0.01670241      -0.00740120       0.14575074       0.12380716       0.07835532       0.02880150       0.01669248       0.02215283      -0.21337413      -0.64959572      -0.03794152      -4.00097992
H       -0.86735350       1.19108200      -2.69332910       0.17877260       0.41608024      -0.50066912      -0.05387379      -0.01860554       0.02034301       0.01742080       0.02195485       0.01174343      -0.04834016       0.02567261      -0.05059288       0.08111985       0.17844374       0.38142473      -0.47738449      -3.97554424
H        0.37001836       0.57934052      -1.61880803      -0.91796726      -0.35258317      -0.13712958      -0.03711983       0.08710442      -0.01751863       0.01534816       0.00387856       0.01089986       0.01720817       0.01282496      -0.00576197      -0.05887823      -0.87960800      -0.39760295      -0.14526179      -3.98948894
H        0.91957873       1.10702443       2.87478375       0.24520408       0.06070241       0.19154364      -0.05541947       0.03463727      -0.02520830      -0.06405323      -0.00387382       0.03352694       0.04110797       0.00134886       0.00059548       0.08428554       0.22119695       0.06899385       0.18149155      -3.99431422
H       -0.35345170       2.67145038      -0.88866735      -0.05942584       0.23734033      -0.22798897      -0.05341763       0.06347120      -0.03393300      -0.00260061       0.05972056       0.04402929       0.04173844      -0.02419533      -0.01955715       0.00768464      -0.05378471       0.22382773      -0.20371941      -3.97057014
42
Properties=species:S:1:pos:R:3:original_dataset_forces:R:3:LES_q:R:1:LES_BEC:R:9:forces:R:3:energies:R:1 original_dataset_energy=-191.84146118164062 energy=-191.95294347272994 stress="inf -inf inf -inf inf inf inf inf inf" pbc="F F F"
O       -4.41914558       2.11135721      -1.35079563       0.34061673       1.42750871      -0.79902071       0.29532638       0.88163319      -0.02583365       0.03538694      -0.34985744       1.24337427      -0.37261234       0.11756591      -0.31279868       0.43590375       0.36454494       1.42158988      -0.79393183      -4.63378227
O        0.88582182      -0.62711394      -2.66358566      -0.91016865      -0.19813852      -0.33045533       0.40015921       1.13648295      -0.48453724      -0.29859211      -0.24488625       1.20082383       0.39583838      -0.12178317       0.21330498       0.60858879      -0.87978841      -0.19861370      -0.36095966      -4.43046196
O        2.65406156      -1.03624928       2.45317698      -1.35481215       0.55446959      -0.45019510       0.27460307       1.26511564       0.21922604       0.35114069      -0.09080088       0.75069576      -0.23489720       0.33310671      -0.01938527       0.54224555      -1.31807667       0.55601742      -0.45284729      -4.73077812
O       -1.65692735      -0.58008617       1.29399061      -0.36588901      -0.15702453      -0.25635368       0.23334189       1.03502535       0.08773804      -0.03235367       0.26331412       0.76352668      -0.36000833      -0.25772610      -0.43493549       0.83646954      -0.39155493      -0.14949728      -0.25282110      -4.71881874
O        0.34594038       1.41971076      -2.12122440       0.19388539       2.18265653       0.42327988       0.27351591       1.01671219       0.36201040       0.12859987       0.10796496       1.28045585       0.29210772       0.10968849       0.24907890       0.69895918       0.15789955       2.14982841       0.39998129      -4.67706235
C       -4.45421839       0.96846426      -0.96682936      -2.18273592       1.40101397      -0.02734354      -0.05763510      -1.67630726       0.39304275      -0.16704148       0.67054091      -1.48301036       0.54998682      -0.23631044       0.51709412      -0.26973797      -2.22635094       1.42103141      -0.04505573      -5.39218687
C        0.02705508       0.23884284      -2.40351248       1.29196286      -1.18074286       0.83661717      -0.07453719      -1.33050897       0.15479756       0.26557408       0.16910258      -1.90134813      -0.59410734       0.23165936      -0.40556529      -0.30140409       1.24787966      -1.18269074       0.86684886      -5.08489907
C        1.51934445      -0.88248205       1.94900966       1.77595568      -1.14370251       0.72866052      -0.10518478      -1.41571797      -0.28518885      -0.53969733      -0.14914440      -1.27283577       0.03823744      -0.58035753      -0.08130963      -0.34416676       1.77158507      -1.12909154       0.70551171      -5.31232248
C       -1.17171812       0.16101420       0.44212675      -1.77699649      -0.32458350      -0.07763109      -0.09074660      -1.49337743      -0.54282560      -0.09028616      -0.70940184      -0.65140386       0.50151410      -0.02457448       0.52250279      -1.00720086      -1.71135920      -0.27109830      -0.12241092      -5.26212260
C        4.17220116       0.48591447       0.53403270      -0.67690003       0.94734895       0.63145572       0.02039913      -0.12300981       0.01071954      -0.22671066       0.12547258      -0.00415865       0.12654021       0.21816487      -0.00398546      -0.18007362      -0.70678698       0.96124533       0.60962908      -5.33798178
C        3.05083966       1.28797913       0.40643024       0.52316755      -1.72640812      -0.03239030      -0.03076531      -0.11418591       0.13635486       0.22703235       0.23227917      -0.06804468      -0.13355779      -0.08088162      -0.01311719      -0.36142711       0.56896837      -1.67216182      -0.08431663      -5.43428936
C        3.66367126       0.63669634      -1.61631656      -1.31656444      -0.38660115      -0.36389163      -0.12620357      -0.64894813       0.13053440      -0.01259660       0.25868673      -0.25668156      -0.02839093      -0.08667387      -0.00338946      -0.08056707      -1.26890606      -0.44398566      -0.39018912      -5.63884415
N        4.55586052       0.15325028      -0.75261122       0.28826374      -0.57878226      -0.07578692      -0.00468622       0.35688447      -0.21112021       0.10540039      -0.34320195       0.10325466       0.02180947       0.11767429       0.02311266       0.12259210       0.26575949      -0.53034153      -0.04683915      -5.15449816
N        0.73035383      -1.93202376       1.67591429      -0.21484299       0.61853743      -0.08907835       0.12900282       0.73504552       0.12129336       0.27040403       0.36960052       1.00625202       0.08886117       0.21897044       0.01099200       0.26707336      -0.17059761       0.63294701      -0.10361240      -4.72351678
N        0.03158084       0.69059825       0.58689868       1.38336647       0.66594791      -0.45885763       0.10712701       1.20455989       0.39706437       0.11916611       0.37671134       0.53693076      -0.17712417       0.30407611      -0.07268294       0.53000403       1.39078687       0.65110263      -0.48297527      -4.82752857
N       -3.41338778       0.25665361      -0.67630416       3.37273288      -3.28320193       1.30536950       0.10182667       1.51788654      -0.51327649       0.20163006      -0.34345896       0.60229783      -0.16213760       0.13123141      -0.18059645       0.35201948       3.36528003      -3.27294395       1.27122500      -4.73528516
N        2.74275970       1.34761596      -0.96475530       1.54242635      -0.55799705       1.68748009       0.00678326       0.64080324      -0.17864604       0.04652362      -0.37042758       0.13695047       0.01449296       0.15994428       0.01162218       0.28711943       1.49076013      -0.53790838       1.72570075      -5.18396400
C       -5.78174448       0.32281649      -0.67222238      -1.09610295      -0.02731545      -1.00590539       0.11350096       0.07919071       0.06426792      -0.03172449       0.05871237      -0.02595914      -0.05615344      -0.10443023      -0.05520505      -0.10478392      -1.09495631      -0.02912691      -0.99992217      -4.59620601
C        1.01022816      -3.29560375       2.07952809      -0.32385656      -0.66665536       0.26005459       0.06700632      -0.14213718       0.07497290      -0.01385908       0.00268704      -0.50460145       0.08192869      -0.00615609       0.18675147      -0.20444781      -0.35939041      -0.67291590       0.25831398      -4.78989537
C        2.11518049       1.57639849       1.55200052      -0.38204354       0.57649553      -0.51931596       0.04760993      -0.13971064      -0.05574803      -0.04962284      -0.07262839      -0.11300819      -0.04202419       0.00239129       0.01652407      -0.08321815      -0.36673611       0.57032886      -0.48758223      -4.92552649
C       -1.44293368      -0.09151644      -2.14927769      -0.01706645      -0.38141689      -0.62467563       0.06596871       0.29025541       0.10309610       0.06518958       0.03465870      -0.06552884      -0.05339066      -0.06926007      -0.05469746      -0.11633536      -0.00189327      -0.33724706      -0.59496024      -4.80743845
C        0.97423935       0.53172767       1.71187449      -0.58249700       0.37196752      -0.56403410      -0.02598655      -0.38783327      -0.10424172      -0.20439197      -0.11995231      -0.17228230      -0.00670472      -0.27988432      -0.02859004      -0.40638323      -0.66970340       0.38025672      -0.54466494      -5.11002846
C       -1.97743976       0.56851459      -0.85634911      -0.38926619       0.54077798       0.19774537      -0.00817398      -0.72077883       0.03822883      -0.03496110       0.03565107      -0.17655741      -0.06704031       0.10807735      -0.09266045      -0.12598947      -0.38008959       0.51931590       0.21277813      -5.07268526
H        4.55237389       0.10530418       1.50321269       0.04336792       0.28008196      -1.31487894      -0.06145184      -0.14311634      -0.07652456       0.03263749      -0.01483541      -0.05731837       0.02747328      -0.07869032      -0.01007189      -0.06205928       0.02465067       0.24894726      -1.34268426      -4.18381076
H        3.49261570       0.19389838      -2.59440804       0.23726915       0.73223221       0.00420112      -0.05792873      -0.02724067      -0.01108415      -0.03935572       0.01624932      -0.04488318      -0.01435863      -0.09214375      -0.01452814      -0.00975860       0.23109531       0.68802096       0.02920293      -4.23940677
H        5.28825998      -0.49384800      -1.06757331      -0.58568037       0.58892083       0.60615176      -0.21735837      -0.38459020       0.08045569       0.03388938       0.06093828      -0.28376821      -0.02712325      -0.02632821      -0.02019738      -0.24957985      -0.58362711       0.58396161       0.61322848      -3.63134757
H       -0.17658365      -1.70598292       1.30207610      -0.22911599      -0.19600093       0.21691273      -0.14851515      -0.50893533       0.21381281      -0.03167797       0.19419297      -0.30965690       0.06299871      -0.03745679       0.03476610      -0.17817436      -0.23468574      -0.20778557       0.23997755      -3.79016449
H        0.31358853       1.26023996      -0.20441473      -0.02415058      -0.10514461       0.02741921      -0.16132157      -0.20914820      -0.01514411       0.07932492      -0.04854337      -0.21441561       0.07246161       0.07672488       0.05513896      -0.52470463      -0.04507608      -0.10977434       0.04465471      -3.71908951
H       -3.61065459      -0.64908940      -0.24521357       0.41066143       0.55489081      -0.29567721      -0.20090604      -0.16308195      -0.02312901      -0.03950267      -0.08664965      -0.25644924       0.01540946      -0.02999415       0.01519207      -0.23212484       0.42926371       0.53962865      -0.27164072      -3.56634455
H        1.81392705       1.61761534      -1.33695614      -0.43176240      -0.18721914      -1.17991161      -0.13223079      -0.82476738      -0.07137499      -0.17617308      -0.05653933      -0.25016158       0.02322998      -0.23633469      -0.00768999      -0.28503258      -0.41334338      -0.17361174      -1.10233264      -3.92163290
H       -6.56392670       0.95107317      -1.13079929       0.47227269      -0.22240444       0.17297114      -0.04105751       0.11545917      -0.02412895       0.02880117      -0.03936956       0.01621255      -0.02023881       0.04621020      -0.01992442       0.00211168       0.46709668      -0.22403642       0.17012190      -3.91791046
H       -5.89614630      -0.68007743      -1.12775683       0.20783654       0.35565308       0.68606329      -0.04950296       0.00055915       0.02164538       0.00123422       0.04830553       0.08700588       0.03659817       0.05890645       0.04134534      -0.00252551       0.19943340       0.35547271       0.68368293      -3.99883764
H       -5.96389389       0.36517644       0.39327383       0.01510628      -0.47918236       0.24277908      -0.05144106       0.00741183       0.01552379      -0.02459038      -0.02143897      -0.01644862       0.00212207      -0.05453843      -0.00937491       0.07616107       0.01402216      -0.48429196       0.24585000      -3.99411880
H        1.53544223      -3.84171200       1.27856934      -0.38688537       0.07755543       0.31717160      -0.05202401      -0.01275493      -0.03669716      -0.03759973      -0.04266894       0.06876247      -0.01302476      -0.03366992       0.04363537       0.01023833      -0.37647476       0.06845346       0.30999622      -3.99237454
H        0.05972335      -3.82900763       2.38522482       1.03262937       0.71939927      -0.65913248      -0.04998203       0.04680918       0.05874560      -0.01717769       0.02459413       0.08442220      -0.04866971      -0.01008604      -0.08458945       0.01707232       1.04278949       0.70297936      -0.64666570      -3.96937955
H        1.65859139      -3.30331182       2.95504189       0.01227219       0.17690191      -0.11811537      -0.03752111       0.01125685      -0.04852130       0.04446184      -0.01609043      -0.02162546       0.00844854       0.05337411      -0.07041744       0.05946196       0.01240108       0.17174810      -0.11082965      -3.97281228
H        2.69446445       1.56983888       2.46720695       0.06337541       0.00895367      -0.01180267      -0.05692494       0.05084762       0.03030921       0.03851734       0.00040279      -0.04962306       0.00199286       0.08776193       0.03682242       0.08580978       0.06014568       0.01559115      -0.02055056      -3.98780547
H        1.68502653       2.58921432       1.42800260       0.02205825      -0.59713024       0.19867517      -0.05684625       0.03266970      -0.03687145      -0.01730310      -0.03565611       0.10266941      -0.00102129      -0.02962996      -0.01973673      -0.01053605       0.02333494      -0.61707980       0.18069694      -4.00139780
H       -1.54355109      -1.18219543      -2.15698576      -0.11633755       0.22793020       0.29150957      -0.05387510       0.00932386       0.02197400      -0.00752456       0.01803886       0.12167578       0.01392595      -0.00295121       0.03322059       0.00868114      -0.10068520       0.23272487       0.28246631      -4.01185556
H       -2.02981019       0.27449465      -3.00836802       0.11650920       0.02160376       0.47611538      -0.05346839       0.02933051      -0.01192685       0.05571449       0.00470369      -0.01348660       0.00610610       0.10037737      -0.01052593       0.10958193       0.12701039       0.01499344       0.47309782      -4.01485700
H        0.41842940       0.77980137       2.61938715       0.11294281      -0.01215886       0.04540171      -0.06090905       0.03508767       0.00028623      -0.05687983       0.01662467       0.02460238       0.01249141       0.01453215       0.00051376       0.07990494       0.12964639      -0.02996624       0.01860296      -4.01341415
H       -1.88949895       1.66608942      -0.95071727      -0.09319323      -0.61864132      -0.09628097      -0.04528168      -0.03220049       0.02072058       0.01899367       0.06611940       0.08334412       0.01801038      -0.01057621       0.01435737       0.01023249      -0.08427186      -0.61201630      -0.08377532      -4.02600122
46
Properties=species:S:1:pos:R:3:original_dataset_forces:R:3:LES_q:R:1:LES_BEC:R:9:forces:R:3:energies:R:1 original_dataset_energy=-201.67361450195312 energy=-201.70779679179617 stress="-inf -inf inf -inf inf inf inf inf inf" pbc="F F F"
O       -1.50273514       3.03548336      -2.64409828       0.26443762      -0.46862900      -0.19549102       0.29056364       1.05901862      -0.54494762       0.17012243      -0.42421747       0.70607653      -0.27904423      -0.08800008      -0.19343599       0.74605815       0.25639141      -0.46670756      -0.22140726      -4.67382043
O        0.94582450      -1.95032442       2.81604362      -0.50309634      -0.94959563       0.33199599       0.36270511       0.59818084       0.18220682      -0.37524377       0.04216886       1.00957376      -0.15270196      -0.33468775      -0.41588357       1.42320671      -0.50984845      -0.91343885       0.31861490      -4.52378270
O        0.71610713      -2.48861456      -2.78758407      -0.32946637      -0.50822711       0.88859379       0.28673854       0.39808098       0.17014923      -0.21510184       0.13961901       0.99703361      -0.12279787      -0.27279564      -0.28484429       1.04703031      -0.33152247      -0.47246550       0.96560546      -4.68130922
O       -1.30906391      -0.21400991       0.99705952       0.26504335      -0.16524102      -0.02646933       0.19101742       0.65050591      -0.02941466      -0.30640457       0.11783403       0.60174915      -0.11154611      -0.40358292       0.13399987       1.34704889       0.28799056      -0.25810397       0.07587890      -4.84998245
O        1.93220174      -0.38545066       1.64680815       0.00829866       0.00642571      -1.00921965       0.33382776       0.79103428       0.14075547      -0.22655244       0.26181742       1.45550329       0.00347530      -0.17831049       0.19262372       0.80313242      -0.04031190      -0.00210374      -0.92287749      -4.58742443
C       -0.45034510       2.41531658      -2.74125862      -0.54324597       1.67894053      -0.55647892      -0.07622578      -1.18683714       0.77120813      -0.21469869       0.66339705      -0.85538140       0.72284559      -0.06463064       0.77296598      -1.50495185      -0.53806937       1.66540833      -0.51715798      -5.32504826
C        1.42507112      -1.54664671       1.74845576      -0.08563016       0.88292938       0.65358132      -0.06877106      -0.50693620      -0.63452092       0.42017911      -0.54978911      -1.62397114       0.25892709       0.43560845       0.23283126      -1.50795622      -0.11542313       0.90190524       0.61389591      -5.10137752
C        0.35142350      -3.05019665      -1.74575853       0.48410723       2.51792765      -1.02785432      -0.08105548      -0.21610924      -0.36843275       0.35483438      -0.34053260      -1.80060147       0.10229029       0.36170927       0.06129780      -1.22173018       0.50444312       2.53119075      -1.08064840      -5.38971210
C       -0.62635392       0.08195984       0.01227272      -0.71201986       0.78992194       0.59698242      -0.10453252      -0.76025743       0.26741997       0.80027072       0.22501894      -1.25037506      -0.05385462       0.76661371      -0.13611854      -1.17382174      -0.77829666       0.89896262       0.60094861      -5.27115623
N        0.07366806      -4.33500957      -1.64711165       0.65392107      -1.42831564      -2.29375076       0.08303566       0.15857402       0.13956508      -0.10268532       0.21198191       1.19706779      -0.03703587      -0.05132015       0.16353801       0.42687186       0.65770298      -1.45684466      -2.28041924      -4.75107330
N        0.00951135      -0.80310249      -0.73895133       0.61236733      -0.57710099      -1.94429314       0.10643704       0.46489597      -0.26946655      -0.30273651      -0.37987104       1.05773016       0.29024917      -0.29662648       0.16992298       0.59025586       0.60688551      -0.51156815      -1.99381157      -4.78877390
N        0.04704648       1.71242487      -1.71242380       0.07634135      -0.68203664       0.71582830       0.10953967       0.46406692      -0.13440346       0.01762747      -0.22066604       0.67195714      -0.42491277       0.19589105      -0.63562165       1.32723972       0.09143471      -0.70970112       0.74051673      -4.74177007
C        0.44339514       2.53300476      -3.99304748      -0.36230713       0.37796184       1.04091549       0.10618129      -0.00608653      -0.03410964      -0.10444375      -0.02050843      -0.09889381      -0.02960190      -0.10660765      -0.03478464       0.06828223      -0.35785921       0.38884918       1.03267397      -4.65744803
C        0.04118162      -5.29096746      -2.80296755      -0.83493382      -0.35580561       1.69117987       0.05787420      -0.13214612       0.17001672       0.07572813      -0.00368333      -0.34437091      -0.17329430      -0.01040452      -0.25331555      -0.35608779      -0.84454578      -0.33969395       1.68833794      -4.75449709
C       -0.67198908       3.30624008       1.66038108      -0.45163316      -0.58859867       0.09136931       0.08844383      -0.15809620       0.05039008       0.06123999       0.04433175      -0.19852485      -0.06033367       0.04142977      -0.01081152      -0.06168384      -0.40103757      -0.55948467       0.12255298      -4.73943361
C       -1.45633161       2.50130224       2.72616696      -0.12764122       0.05127477       0.04030368       0.10101131      -0.08054341      -0.03169835      -0.04158394      -0.00279482      -0.12406240       0.00102879       0.01385876      -0.01510716      -0.23425023      -0.14137626      -0.00418769      -0.02010889      -4.66706958
C        1.36650097      -2.46346998       0.52281064       0.60836220       0.31701556      -0.72901887       0.07470707      -0.12190282       0.02465030      -0.01380434       0.02378584       0.13004978       0.16083186      -0.02409720       0.14463716       0.17657311       0.59106419       0.30836615      -0.68716494      -4.81045647
C        0.17366970       2.50830317       0.62523764       0.39458200      -0.37979549       0.35790583       0.08730435      -0.11644946       0.03452333      -0.02101926       0.02578762      -0.12730386      -0.03788201      -0.03828753       0.03796470      -0.10797511       0.41585002      -0.31644073       0.25710654      -4.66835678
C       -0.63221908       1.69778407       3.75511742       0.37984738       1.48758471      -0.37980497       0.01747648      -0.24543361       0.18817813       0.11214275       0.14388600      -0.39596643      -0.15419146       0.04141794      -0.13290748      -0.18630588       0.38655270       1.48743104      -0.42188861      -4.82227685
C        0.18095946      -2.22666240      -0.45091060      -0.17283367      -0.02568770       1.31630456      -0.01415721      -0.23037665       0.13296156      -0.07252881       0.11779701      -0.47965344       0.10300519      -0.06884009       0.14651710      -0.00043804      -0.17126550      -0.04868141       1.36146384      -5.06468352
C       -0.56086832       1.58150017      -0.38724509      -0.69260120       0.02551629      -0.85063970      -0.01135055      -0.24341895      -0.03961845       0.06663846      -0.04008563      -0.05496923      -0.02094154       0.01962076       0.09948965      -0.55081180      -0.74699136       0.02608831      -0.76580889      -5.05923419
N       -0.01892614       0.47388244       3.23340607       0.51601774       0.28403142       0.60916167       0.02847122       0.35308353      -0.17244007       0.04350423      -0.14721546       0.44353009       0.03477469      -0.04805833       0.04869036       0.35483109       0.48748099       0.28186176       0.58673808      -4.30415782
H       -0.25558421      -4.65615988      -0.79338324      -0.61184758      -0.71172106       1.51377439      -0.20925626      -0.21176022      -0.04707550       0.00185211       0.00568499      -0.25335568       0.01014303       0.02274996       0.06045340      -0.22980385      -0.60586817      -0.70199815       1.50677028      -3.56400031
H        0.28922474      -0.52144831      -1.69020808      -0.08650004      -0.42093506       0.94386303      -0.18179326      -0.20031723       0.00362785       0.02563501      -0.01966793      -0.15328782       0.06231784       0.02971366      -0.04317992      -0.27972836      -0.03684328      -0.45649647       0.89512729      -3.64418073
H        0.94534516       1.30487835      -1.81401539       0.71279490      -0.06718537      -0.11349900      -0.20562796      -0.24005446      -0.02826365       0.02864497      -0.01024356      -0.22593853      -0.00224933       0.01066477      -0.02171858      -0.14375072       0.70516981      -0.04620021      -0.14706212      -3.53959416
H       -0.05156296       3.20807171      -4.68127680       0.03965880       0.10153122       0.07042839      -0.04517546       0.01069298      -0.01650961       0.00622369      -0.01434605       0.02564058      -0.06517243      -0.00160895      -0.05804028       0.08531000       0.04776528       0.10727194       0.06198768      -3.96108708
H        0.51729989       1.57537496      -4.46867895       0.40553492      -0.52227408      -0.20879847      -0.05448961      -0.01489656      -0.01273805      -0.00957068      -0.01317933       0.05496797       0.04309157      -0.02404957       0.02419832       0.04095418       0.40186669      -0.52117814      -0.20333380      -4.00251720
H        1.42668164       2.94263172      -3.69362974      -0.44481754      -0.40053558      -0.32126006      -0.04912357       0.08659793       0.03372949       0.00621019       0.03920985      -0.00069481      -0.01259670       0.01902103       0.01794579      -0.00786934      -0.45060899      -0.39835904      -0.33001318      -3.99711233
H        0.33055657      -6.31402969      -2.50853634       0.22349137       0.70193470       0.15371718      -0.05059680      -0.02132477      -0.10027191      -0.03658429      -0.02604766       0.16893102       0.06259335       0.00657403       0.03950125       0.02621090       0.22727534       0.68627948       0.15163182      -3.97131358
H       -0.97810829      -5.37964201      -3.12601042      -0.64227414       0.03060955      -0.17053728      -0.04999271       0.05333143       0.03700505       0.05036215       0.00687566       0.03741521       0.05552687       0.02855139       0.08585372       0.05261673      -0.63974574       0.02914954      -0.17488273      -3.94550294
H        0.57959795      -4.98810720      -3.65731812       0.96706140       0.71795219      -0.42913640      -0.04459357      -0.00289016      -0.06576155      -0.06426521       0.02064753      -0.05661913      -0.04820473      -0.02611954       0.05712988       0.06965988       0.95448456       0.70718188      -0.41939722      -3.98944441
H       -1.36788702       3.98777485       1.13212395       0.20245853      -0.65288073       0.06803918      -0.05823424       0.04456492      -0.05830085       0.00396236      -0.07108967       0.10859813      -0.01803419       0.01633931      -0.06090961       0.03614117       0.19835633      -0.62202780       0.08666961      -3.96377584
H       -0.02957284       3.99137545       2.19310856       0.53079128       0.11055693       0.11544613      -0.06178752       0.03209641       0.05758242       0.00999386       0.03210628       0.07327794       0.07480657       0.00731879       0.03521218       0.03147473       0.52842203       0.12159083       0.07970274      -3.95259884
H       -2.12028956       1.80113900       2.23561335      -0.20038271      -0.11682394      -0.17037290      -0.04917316       0.01980135       0.08834170       0.05126841       0.08381356      -0.01882607      -0.01909491       0.01776692       0.01301226       0.06641093      -0.21214831      -0.09539482      -0.13070560      -3.97966378
H       -2.11663103       3.18245268       3.30883694       0.57748717      -0.32692850      -0.38872385      -0.05829079       0.07429528      -0.09543097      -0.06525725      -0.05426591       0.03321514      -0.02346360      -0.06738999       0.04973936       0.07630721       0.58865323      -0.32512243      -0.38734027      -3.95239844
H        2.27777338      -2.29097056      -0.04218715       0.19322813      -0.05915627      -0.06003335      -0.05370640       0.07781806      -0.00189529      -0.02928524       0.00056056       0.00832569       0.00485841      -0.04404225       0.00836799       0.03459283       0.18817740      -0.08190936      -0.07120232      -3.98638379
H        1.34349787      -3.49651575       0.84604722      -0.02026731      -0.10804250       0.11268383      -0.05559494       0.00945279      -0.04646912       0.02048474      -0.03243296       0.15021072      -0.00967062       0.01491862      -0.00187605       0.01030143      -0.01066810      -0.10310796       0.11269107      -3.99718421
H        0.67575812       3.28579569       0.03866279      -0.08170215      -0.35269850      -0.03915852      -0.05206190       0.02007691       0.05303116      -0.03472949       0.03441688       0.04485541      -0.01340974      -0.04906022      -0.03048807       0.05475831      -0.08948271      -0.35775800      -0.01067430      -3.94043934
H        0.98873913       1.86909783       1.05107427      -0.60900813       0.79749554       0.05179273      -0.04404785       0.05169627      -0.04736451       0.02081689      -0.03695888      -0.02404521      -0.00186185       0.02065147      -0.02973996       0.00968695      -0.61556597       0.74757649       0.10366781      -4.02077573
H        0.14926928       2.34883928       4.17185974      -0.11527295      -0.32498252      -0.08376597      -0.06050857       0.02196967       0.02558544       0.05729232       0.02432194       0.03317423       0.00199394       0.04571614       0.02619477      -0.03557454      -0.12295719      -0.33644184      -0.08278277      -3.95575703
H       -1.27641642       1.41774261       4.55925894      -0.42059651      -0.21175988       0.49555019      -0.06337763       0.01567495      -0.01429647      -0.03418604       0.00318460      -0.02345699      -0.09024913      -0.02987488      -0.03904789      -0.01666850      -0.43227604      -0.21396391       0.50781855      -3.94839251
H       -0.68337071      -2.59732866       0.10187489      -0.30323356       0.26749846      -0.24471395      -0.05556918       0.03871965       0.02655639      -0.04381622      -0.00475629      -0.04524404      -0.03606739      -0.03313086       0.00047365       0.02752262      -0.29993509       0.26149131      -0.26024780      -4.00782471
H       -1.62130058       1.87562525      -0.50125211       0.60702002      -0.00290425       0.04666889      -0.05070929       0.09055167       0.00502346      -0.00801316      -0.02757945      -0.01636535       0.04975406       0.05626486       0.00140853      -0.02859252       0.62323491      -0.03588395       0.00782074      -3.98972907
H        0.28517491      -0.17440709       3.95214462      -0.18646465      -0.29976737       0.07032136      -0.17889135      -0.20979408       0.06966104       0.00775369       0.07559545      -0.33108896       0.02896125       0.00446410      -0.00236787      -0.25703381      -0.12544702      -0.34469522       0.12091022      -3.31885690
H       -0.64995670      -0.01701111       2.60812950      -0.28407392      -0.35680777      -0.36318159      -0.11376478      -0.26541442      -0.02886340      -0.28489440      -0.04606209      -0.20909898       0.01184968      -0.14233912      -0.07598230      -0.66236026      -0.26984849      -0.39070837      -0.45042128      -3.53936533
H        0.86403942       0.55207133       2.68536067       0.10104081      -0.08485833      -0.36975318      -0.12454928      -0.41373565       0.15012452       0.19461716       0.14215100      -0.29678776      -0.08511162       0.22700008      -0.14778878      -0.36508366       0.13874103      -0.05993717      -0.41977501      -3.48661584
48
Properties=species:S:1:pos:R:3:original_dataset_forces:R:3:LES_q:R:1:LES_BEC:R:9:forces:R:3:energies:R:1 original_dataset_energy=-208.7926025390625 energy=-208.7729871427545 stress="inf inf -inf inf inf -inf -inf -inf inf" pbc="F F F"
O       -0.45469648       3.47556210       1.12160218      -2.11860371      -0.66345227      -0.32550645       0.21474662       1.32167545       0.46126651      -0.04128851       0.24997361       0.80977029       0.07536892      -0.25201020      -0.05820955       0.61628765      -2.11179912      -0.66472822      -0.31097132      -4.77486796
O       -2.86321568      -1.76146626      -0.93640780      -4.61133194      -4.22048569      -4.46689272       0.27002129       0.90384997       0.01105364       0.24914580       0.42391052       1.51031213       0.20052013       0.32175453      -0.06182463       0.50076446      -4.24569200      -3.91173832      -4.09728898      -4.37339824
O       -0.13156408       1.65320897      -2.49275494      -0.84817410       0.57260704       2.19556332       0.28529522       0.58600193      -0.03346458      -0.22041296      -0.10570507       0.42422778      -0.00669114       0.01872647      -0.27138092       1.39110979      -0.97634043       0.58590683       2.41760778      -4.72313840
O        4.02783346       1.14175344       0.34387457      -2.54218841       0.85576892      -0.05740750       0.31771347       1.37954234      -0.28315032      -0.07234345      -0.21195947       0.74284063       0.21450637       0.08997148       0.19147351       0.45943006      -2.49904076       0.81889924      -0.06771987      -4.60685488
O       -1.59951711      -0.67795414       0.17304796       2.28083324       2.71509194       1.61437690       0.39701995       1.19435884       0.11696047       0.45980782      -0.08545356       0.95959448       0.00935619       0.52864217       0.28532595       1.02039638       2.17959928       2.37459868       1.49336198      -4.08998843
C       -1.44244099       2.77554226       1.44425893       1.15056181       0.66676837       1.78290474      -0.08222022      -0.90533902      -1.26154920      -0.35704165      -0.70622487      -1.07422602      -0.37885539       0.08260496      -0.41686245      -1.31211976       1.07964497       0.77114413       1.86288149      -5.12569058
C       -2.47030759      -0.65122581      -0.72952193       3.23978806       0.94075859       4.08463240      -0.09825506      -1.15370805      -0.29572244      -0.74676769      -0.39768206      -1.52790383      -0.14588282      -0.93793070      -0.14466370      -0.84203164       2.82953105       1.20770937       3.82132832      -4.90921213
C       -0.44363201       1.68513346      -1.28196788       1.31583083      -2.12714171      -0.78539133      -0.10737890      -0.96760022       0.28900612      -0.12820786       0.26590870      -0.34739761       0.23228203      -0.16733616       0.37210468      -1.74003095       1.42380627      -2.07809012      -1.07086895      -5.23309072
C        2.83082914       1.56041121       0.35565066       2.84643412      -3.38670564      -0.24251814      -0.08174302      -1.52672049       0.38931926       0.01173549       0.56369695      -0.99254782      -0.59980300      -0.02033978      -0.63160974      -0.50709802       2.76344772      -3.22673518      -0.21975398      -5.31820819
C       -0.56447703      -4.19015837      -0.42717871       3.44034004       3.89418602      -1.86249256      -0.08904657      -1.48101721       0.45675145       0.39837824       0.14626206      -1.86791401       0.41771139       0.42452165       0.80051325      -0.33646445       3.63023057       3.98259326      -1.96646121      -5.50755225
N       -1.76728582      -4.06604481      -0.06892586      -3.82727003      -2.75354910       2.88480163       0.13647906       1.21998517       0.11780611      -0.22479031      -0.17978377       0.63549169      -0.14277174      -0.36017308      -0.51587418       0.28596871      -4.06361567      -2.86180362       3.09116380      -3.94699004
N        2.40124202       2.59716797       0.98773134      -3.51278043       4.11266136       2.70335960       0.09642950       0.63441111      -0.04895698       0.01324814      -0.28901319       0.80734943       0.43672380      -0.02893930       0.52925476       0.46918534      -3.55322835       4.08922190       2.68165862      -4.71407726
N       -0.04411757      -3.04777527      -0.92112386      -3.01506329       1.88841569      -0.44047683       0.13531424       0.59528233       0.15295543      -0.28200807       0.26115419       1.01272147      -0.32369291      -0.31181217      -0.44613876       0.39353402      -2.92354773       1.76797968      -0.46460351      -4.33638488
N       -2.21803617       2.02182961       0.63578248       2.21127629       1.70549083      -1.50031793       0.10922996       0.41180369       0.56538163       0.40418509       0.18966647       0.75863991       0.34014704       0.12591194       0.70704224       0.93978129       2.26683222       1.67265068      -1.42768136      -4.74896645
N        0.37928897       1.33184767      -0.25727120       0.08624177       0.27761823      -0.81435162       0.12860481       0.90351809      -0.32387922       0.45422927      -0.30759000       0.47594531      -0.15039044       0.24873878      -0.34890612       0.87999008       0.15640817       0.22868791      -0.78453337      -4.57143758
N        0.17766792      -5.24976397      -0.24058297      -1.20784605      -2.29231644       0.80640262       0.11397418       0.58422400      -0.60274229      -0.05877050      -0.27236597       1.25432408      -0.12572457      -0.01892749      -0.33903965       0.16605228      -1.21263102      -2.30578766       0.85141908      -4.01414524
C       -1.68473577       2.63398623       2.96336007      -0.78472376      -1.47049856      -0.77952498       0.10807079      -0.12817932       0.12089204       0.04637401       0.03274197      -0.08953677      -0.01530410      -0.07330210       0.03187357       0.17855327      -0.77839423      -1.44434439      -0.66829752      -4.59644310
C        3.10001993       3.45333624       1.97677803       2.19663906       0.76313865      -2.91065073       0.05908124      -0.27875509      -0.22028528      -0.12172626      -0.13728934      -0.38137299      -0.22895270      -0.03865802      -0.16288571      -0.30233428       2.20188391       0.72990887      -2.87075581      -4.61430690
C        1.05157304      -2.81634212      -1.79085886       2.52011657      -2.80579257       0.50556213       0.01194178      -0.42242416      -0.08298445       0.18937187      -0.11567477      -0.20855399       0.10438492       0.21509582       0.18643158      -0.27389898       2.59483380      -2.77074379       0.77249572      -4.91121986
C        1.52600527      -1.39365530      -1.70378387       1.00803304       0.96815574      -1.38832951       0.08201143      -0.12760364       0.00070285      -0.02805416       0.01382304      -0.07210234       0.00528299       0.03126763      -0.05815561      -0.12229979       0.96469595       1.06159160      -1.46731736      -4.73658609
C       -2.87684536       0.68653244      -1.21895337       1.42135596       1.15804899      -2.50011301       0.04282432      -0.19443541       0.00797452      -0.02212583       0.11505469      -0.02663586       0.01780832       0.00180005      -0.03396984      -0.11976141       1.45448278       0.93346896      -2.60313133      -4.70650411
C        1.70743585      -0.80119592      -0.31984836       1.64681458       0.54108882       0.86849988       0.09730038      -0.15040112       0.02037755       0.01730542      -0.06956279      -0.07521706       0.03984777      -0.07527057       0.04863432      -0.08360546       1.66164379       0.48499404       0.80564581      -4.61071215
C       -1.89143133       1.89234352      -0.83819377      -2.42944217      -0.27058372       1.20665240      -0.02064046      -0.11215395      -0.05634018      -0.04001754       0.01224453      -0.20871940      -0.04661220      -0.09471623      -0.12548347      -0.50010472      -2.48542136      -0.24107279       1.16056052      -4.88688176
C        1.74328065       0.79118532      -0.41566133      -0.47263181      -0.99537557      -0.70044005      -0.00139351      -0.40623702       0.16436708       0.00558159       0.15147545      -0.37872815       0.04804057      -0.00943479       0.05964780      -0.10056886      -0.44061206      -1.07423972      -0.66770592      -5.01460647
H       -2.10626769      -4.71798325       0.65843618       0.04961173       0.80291545      -0.93716860      -0.19134739      -0.32132290      -0.12396122       0.04648981      -0.03978124      -0.20623669       0.06417838       0.08982735       0.13322000      -0.25375446       0.05705932       0.83229497      -1.03493247      -3.50511704
H       -2.24835515      -3.18609095      -0.20043796      -0.59800148       1.04669654      -0.29281333      -0.09969407      -0.24363488       0.25681179      -0.05270552       0.24847726      -0.63626944       0.18139864      -0.07837009       0.24548555      -0.19632340      -0.52849912       1.04957703      -0.29192754      -3.79807617
H        1.36570120       2.87754560       0.92971933       2.03722763      -0.93960577      -0.22634608      -0.13633254      -0.68623959       0.20460238       0.06375526       0.22639834      -0.15988322       0.00070223       0.08069424       0.02270253      -0.13209526       2.06383052      -0.88179651      -0.18418246      -3.81508131
H       -0.80045265      -2.27131057      -1.04271841       1.57103944      -1.69577241       0.87744129      -0.17050914      -0.45706426       0.09140533      -0.01289480       0.12127267      -0.44852870      -0.05954894       0.04581598      -0.05268385      -0.20971891       1.52478964      -1.77405313       0.78561134      -3.54905113
H       -2.73765445       1.26815295       1.01955771      -0.09414420      -0.40489122       0.40540990      -0.20396809      -0.20340898      -0.06359981      -0.00939041       0.00973640      -0.31223299      -0.01890904       0.04119365       0.00476147      -0.12766502      -0.15497957      -0.35467765       0.45817390      -3.57788459
H       -0.15425664       1.24878788       0.61363316       1.14679313      -0.63990372      -0.69046187      -0.18444251      -0.09996633      -0.08318588       0.03864665      -0.04850851      -0.27349427      -0.03608642       0.09390378       0.00822709      -0.21772142       1.21884596      -0.67951375      -0.75988048      -3.56788630
H       -0.37427694      -6.07205534       0.02477705       1.21438622       0.30784571      -0.26577431      -0.19048260      -0.21319800      -0.08314183       0.00815298      -0.00043748      -0.41836880       0.03183767      -0.00965666       0.07434400      -0.19777879       1.22644283       0.34674521      -0.28551694      -3.51158808
H        1.12269902      -5.28429794      -0.52573317       0.57817888      -0.22557521      -0.19359538      -0.18871471      -0.28283022       0.00789147       0.01836440       0.03206367      -0.26023704       0.00512614       0.01862315       0.01142816      -0.19693051       0.53989411      -0.26741367      -0.18273496      -3.57433456
H       -1.71614933       1.55638170       3.22624040       0.25581324       0.41094378      -0.24027291      -0.04428636      -0.03479701       0.03333312       0.02105326      -0.01058284       0.10358655      -0.02498782       0.02159071      -0.06797633      -0.02607328       0.22935224       0.47512252      -0.28470077      -3.94973903
H       -0.82804990       3.07176399       3.43150616       0.02583084       0.44254449       0.46771404      -0.04587732       0.04978809       0.01819042       0.03079621       0.03154513       0.00151581       0.02722697      -0.01301537       0.07147893       0.07226056       0.02056719       0.42576988       0.43381207      -3.95551908
H       -2.66247630       2.97557926       3.31570458       0.36199909       0.50567025      -0.17067958      -0.05216774       0.07196647      -0.06317141      -0.05774681      -0.03693394       0.01463554       0.03494993      -0.03366113       0.02362344       0.02373656       0.35029656       0.47840722      -0.20025074      -4.00868856
H        4.18354702       3.44991922       1.65575838      -0.91189140      -0.68336290       1.24715364      -0.03458619       0.12556544       0.07291286       0.05830759       0.02614668       0.00471011       0.01703032      -0.02812353       0.00934719      -0.00013092      -0.89798109      -0.67300947       1.23849761      -3.91966527
H        2.85756278       3.32768726       3.00299621       0.11293068      -1.06212807       0.75396484      -0.05863366      -0.01830870       0.03320475      -0.00469381       0.02655628      -0.00829729       0.01751381       0.03177731       0.03515690       0.08705020       0.11806676      -1.05947328       0.74096395      -4.01286867
H        2.92621088       4.52192736       1.83064699      -0.82499045      -0.13456225      -0.54321015      -0.04788725      -0.00986727       0.00913467       0.00612281       0.03983373       0.14825506       0.06374375      -0.02441272      -0.03064871      -0.01851219      -0.83269727      -0.15223001      -0.54812655      -3.92627602
H        0.80973369      -3.13878942      -2.81465411       0.16109917       0.38201478       0.13735318      -0.06318052       0.01473579       0.00043272      -0.01624303       0.04409938      -0.02787931       0.01194670      -0.04583940       0.06129652       0.10966070       0.11886343       0.33581715       0.08853569      -4.00207148
H        1.85745668      -3.55153990      -1.42157650      -0.61212003       1.12256312      -0.71168661      -0.04816258       0.06750402       0.00725034      -0.01261415      -0.03215716       0.11978275      -0.03604296       0.03350984      -0.08360203      -0.01001759      -0.62057990       1.11688781      -0.82718784      -3.90043791
H        2.50963044      -1.24131715      -2.27094412      -1.50353515      -0.43097892       0.50896966      -0.05564465       0.07427246       0.05057618      -0.04852917       0.04401134       0.03083186      -0.00804048      -0.07592947       0.01684932       0.05745052      -1.41515305      -0.42081395       0.49121789      -3.93600616
H        0.75353128      -0.82916605      -2.24919033       0.36204109       0.24295926       0.21115775      -0.04440610       0.02522016      -0.01382831       0.05410468       0.00257864      -0.02695470      -0.04757073       0.05075999       0.01370136       0.01450556       0.37865353       0.27130024       0.18998829      -3.96006888
H       -3.90859509       0.82015687      -1.02212489      -0.92307222       0.72637123       0.77781755      -0.05522821       0.15408855      -0.03036901      -0.00234523      -0.07724747       0.02391233      -0.03862655       0.05282677      -0.03231796      -0.00932622      -0.92900249       0.75593536       0.82476441      -3.96926474
H       -2.88330913       0.67394286      -2.29278469       0.10803059      -0.24424058      -0.72366035      -0.05236229       0.04464359      -0.01171598       0.03416772      -0.05521080       0.02940776      -0.03742073       0.03507037      -0.00326032       0.08229168       0.12397124      -0.26863414      -0.72771363      -3.96461905
H        2.63123155      -1.16631770       0.19478303      -0.33730230       0.41102976      -0.83821505      -0.04820297       0.09093643      -0.07515481       0.05555613      -0.07361577       0.01094149      -0.01099547       0.08528429      -0.02193533       0.04188425      -0.36308285       0.44351382      -0.80441514      -3.98786841
H        0.94721681      -1.20028925       0.31068116      -0.98526794       0.49340242       0.52300817      -0.04153314      -0.02362810       0.04349858      -0.06946259       0.02906600      -0.03166067      -0.04905679      -0.04831040      -0.05575310       0.02432558      -0.95057171       0.50734914       0.52084913      -3.96409876
H       -2.15345836       2.86253810      -1.29633546      -0.38230196      -0.71552855      -0.03648572      -0.06193203       0.01143957       0.01813188      -0.02439941      -0.06836127       0.14010186      -0.06233322      -0.03090747       0.01414345       0.01632125      -0.35961065      -0.71826242      -0.01296355      -4.03028371
H        2.11590600       0.96051556      -1.43699002      -0.80784541       0.20929167       0.08066095      -0.05346825      -0.01597254       0.03501202      -0.03030054       0.01344365       0.04200065      -0.00333480       0.00716389       0.00511436       0.00582609      -0.83519339       0.08108634       0.10108614      -3.91803179
46
Properties=species:S:1:pos:R:3:original_dataset_forces:R:3:LES_q:R:1:LES_BEC:R:9:forces:R:3:energies:R:1 original_dataset_energy=-201.90708923339844 energy=-201.8901581543552 stress="inf -inf inf -inf inf inf inf inf inf" pbc="F F F"
O        1.46911752       1.67577529       3.94960976      -0.47467908      -0.73932981       0.45001090       0.29771024       0.70173672       0.44250732       0.27104705       0.51346224       1.01493958       0.10081085      -0.00218252      -0.21389389       0.80055680      -0.50180008      -0.76854012       0.46748079      -4.65368650
O        0.70419192       1.41039300      -3.66906071       1.19647336       0.05556429       0.56548291       0.38404498       0.75165591       0.01784707       0.35837512      -0.06000947       0.54499870       0.34621969      -0.03326643       0.12840199       1.70237379       1.17043434       0.07241379       0.53891794      -4.44732017
O        0.09295830      -1.03858364      -2.17015982       0.93250090      -0.79293764       0.18622902       0.17591675       1.49996406      -0.70702121       0.00150255      -0.44340598       0.91594678       0.14643085       0.28812559      -0.00551133       0.60457686       0.87746000      -0.80575410       0.23864603      -4.85108999
O        0.93354160      -1.39404702       1.26166368      -0.30970955       0.49772602       0.41222662       0.29226464       0.48750098      -0.20968300      -0.07134411      -0.11138421       1.22068250      -0.33787495      -0.13014118      -0.04512803       0.62250525      -0.28208521       0.48075099       0.38581840      -4.62152582
O        0.34434366       2.38218617      -1.72768176       0.54049718       0.08404491       0.61492813       0.31517389       1.18212660      -0.23612654      -0.29075552      -0.14602797       0.81492891       0.27058063      -0.02380097       0.20026602       1.14575929       0.41400326       0.05661128       0.62593562      -4.63227458
C        0.86432070       0.66348863       4.31894398       1.31303036       1.40284753       0.03110037      -0.07583915      -0.90637280      -0.80432492      -0.72951530      -0.83919798      -1.16413311      -0.25173775      -0.43890563       0.01955007      -1.44267553       1.34554443       1.43807149       0.02027237      -5.36081465
C        1.08949924       1.70545125      -2.50828552      -1.65017295      -0.42755038      -0.97644442      -0.07970092      -1.10059478       0.46911255      -0.02694396       0.55195639      -0.71060162      -0.59368447       0.01116308      -0.35214623      -2.09520165      -1.56197393      -0.43932026      -0.98140744      -5.00212255
C        1.26386726      -1.21372461      -1.80695105      -0.95162916       0.42506158       0.68977135      -0.09952094      -1.49734198       0.67288372      -0.13249184       0.64827985      -1.39350115      -0.56407739      -0.22172484      -0.36977184      -0.50567169      -1.00849618       0.43543177       0.63887243      -5.32654911
C        0.67979831      -0.19101655       1.15849876      -0.22784668      -2.08783722      -0.55466342      -0.08737196      -0.43753231       0.10521545       0.45604059       0.09032974      -1.41203555       0.53673781       0.53391298       0.32309721      -1.03723341      -0.24277310      -2.08712400      -0.53363875      -5.32724045
N        2.00756788      -2.30648804      -2.09791827       0.62546968       0.28815705      -0.06709283       0.10237684       0.60402230      -0.22478862       0.08983342      -0.53395553       1.02625437       0.39356174      -0.09772250       0.39008701       0.36915302       0.68004231       0.27188024      -0.05409572      -4.70305431
N        1.16432977       0.50482154       0.13313657       0.27509397      -0.09172861      -0.81282532       0.11591522       0.42936794       0.15048680      -0.44922015       0.02457661       0.62660311      -0.15250712      -0.36384453      -0.34002485       0.91133133       0.26529690      -0.04999629      -0.85188363      -4.84099730
N        0.02042248       0.02291796       3.49956942      -0.81087166       0.00319584      -0.82001299       0.12039910       0.72353086       0.30473306       0.47847316       0.25904583       0.50339414       0.04649394       0.49469883       0.29581368       1.31421953      -0.84764262       0.00794997      -0.89967996      -4.66502899
C        1.05996919       0.08088303       5.71770954      -1.18337727      -0.01294847      -0.40724021       0.10237958      -0.08659951       0.03092494       0.06114298       0.03679720      -0.04037968      -0.04391531       0.04260582      -0.08853657       0.05590353      -1.17645481      -0.01774868      -0.40504183      -4.68404894
C        1.54108977      -3.43730688      -2.93201303       0.41777417       0.25901806       0.13721204       0.06067865      -0.14375405      -0.11518401      -0.07237004      -0.05118124      -0.39537908      -0.17706769       0.01196268      -0.25653577      -0.32675047       0.41845082       0.23267917       0.16290098      -4.81066444
C       -2.32915163       0.96754777       0.58025289       1.65010035      -0.10185828      -0.97261602       0.09132796      -0.06215204      -0.02021632       0.04595669      -0.05450526      -0.09707272       0.00305974       0.07220737       0.01037184      -0.06753137       1.69270090      -0.07683244      -0.94586637      -4.71836232
C       -2.56733060      -0.06107152      -0.53388458      -0.74887878       0.63748300       0.16360106       0.09504153      -0.16417195       0.04485924      -0.09165129       0.07556106      -0.06621428      -0.04293588      -0.05628061      -0.04502208      -0.02480467      -0.76878130       0.61558215       0.16031917      -4.69022270
C        2.34773397       1.03773332      -1.90988708      -0.22747180       1.10550570       0.48096448       0.05614704       0.09429144      -0.06792029       0.05801747      -0.08191720       0.02283804      -0.07811762      -0.03477283      -0.05669612       0.08441354      -0.27124755       1.10434101       0.46358717      -4.83251893
C       -1.80189645       0.37797031       1.89372385      -0.00114237       0.61987591      -0.25557059       0.09395441      -0.11628548      -0.01884557      -0.04148382       0.01028724      -0.12603999       0.02122101       0.01911034       0.01397068      -0.10774687      -0.01372012       0.62368030      -0.25166910      -4.71616744
C       -2.96725750       0.50025332      -1.93805361      -0.19178268      -0.79635996       0.45171860       0.01693622      -0.39890095      -0.05678655       0.12209681      -0.17063708      -0.19042761       0.02577040       0.14146573       0.10247880      -0.27614865      -0.18371158      -0.78675270       0.49156387      -4.75830978
C        1.96118379      -0.10200545      -0.96499944       0.60072613       0.20191324       0.66610628      -0.00999592      -0.32668005       0.06010519       0.31984151       0.09093096      -0.16466677      -0.02950271       0.25061519      -0.05484281      -0.39647517       0.64322702       0.20601380       0.67311348      -5.04818117
C       -0.27122647       0.52335501       2.11258745      -0.20857260      -0.48213449       1.63075733      -0.03801117      -0.29131158      -0.04378856      -0.03820971      -0.01934021      -0.15696036       0.16920947      -0.13595773       0.09843405      -0.58250524      -0.19324736      -0.47819122       1.74109777      -5.13774321
N       -1.76368284       0.95606077      -2.68397474       0.32049173       0.31515238      -0.05269561       0.02676518       0.56088545       0.00073135       0.13901714       0.12075774       0.25867830      -0.09582312      -0.04264810      -0.09648961       0.42637587       0.37300483       0.41354004       0.03108830      -4.24405564
H        2.99122858      -2.27632070      -1.78077841      -1.26922739      -0.25067276      -0.32447845      -0.21250351      -0.29304063       0.02691204       0.00708255       0.01555270      -0.18223651       0.01134084      -0.00207106       0.01765094      -0.21703417      -1.24980142      -0.24378152      -0.35464724      -3.58092911
H        0.88305521       1.47007298       0.04181862       0.10704909       0.06266668      -0.60491192      -0.18521017      -0.16387913       0.02100571      -0.08754547       0.02090959      -0.31153095       0.12048305      -0.08769209       0.06680692      -0.30753297       0.07438471       0.05620379      -0.59625220      -3.66515607
H       -0.38809532      -0.84124255       3.83566332       0.05935574       0.30342433      -0.52646178      -0.21048892      -0.21396739      -0.00843531       0.03072142       0.00225374      -0.21719303       0.02221933       0.01730679       0.00561804      -0.16210914       0.06509219       0.29609141      -0.52053483      -3.59431023
H        1.77659428       0.66441774       6.24921989       0.53574282       0.36152694       0.14240518      -0.04743611       0.03171142       0.02646150       0.06713876       0.03403355       0.00985060       0.00601493       0.04485550       0.00835733       0.08941288       0.54030134       0.36774934       0.13868840      -3.96670879
H        1.40207791      -0.94691288       5.63809204      -0.11136020      -0.11382493       0.14429475      -0.05161408      -0.01039704      -0.02928351       0.01655619      -0.03273680       0.07957143      -0.00339591       0.00236295      -0.00131981      -0.00163559      -0.11673276      -0.11109180       0.15201854      -3.99808299
H        0.10793392       0.14239499       6.28533983       0.50633240      -0.29044008      -0.38327876      -0.04827493       0.06064099      -0.00033296      -0.07381165      -0.00216784      -0.01776970       0.00269777      -0.04326369      -0.00668441       0.06787346       0.50352645      -0.29049920      -0.37814448      -3.98269805
H        0.60991865      -3.15881038      -3.42327404       0.17964639       0.11984523       0.10238159      -0.03665287       0.01952613       0.06797995       0.09011803      -0.00843130      -0.05814023      -0.07048040       0.00313759       0.02448298       0.01021272       0.17175496       0.11394114       0.12119081      -3.98691301
H        1.34897196      -4.32145357      -2.31219673       0.10755101       0.26819706      -0.10077558      -0.05244837      -0.02882430       0.04541275       0.01648192       0.02044951       0.09445071       0.02156764       0.00843154      -0.03888286       0.00125757       0.09452915       0.25759863      -0.11879895      -3.99030435
H        2.29489112      -3.69423842      -3.70184517      -0.41390768       0.25510758       0.49558869      -0.05222649       0.01327110      -0.01589312      -0.04100714       0.00971081       0.00784732       0.03658212      -0.05663284       0.10788125       0.08860427      -0.40169013       0.25492755       0.49414571      -3.98932143
H       -3.23409581       1.48135769       0.76667011      -0.92140305       0.65084541       0.15707920      -0.06619778       0.04533008      -0.05498606       0.01784725      -0.04246938       0.01682557       0.00126695       0.00482934       0.01075007       0.01649868      -0.92437997       0.64973574       0.11040886      -3.94880940
H       -1.58392513       1.69427419       0.22671431      -0.31180045       0.08247329       0.03911269      -0.05104192       0.00831325       0.04556483      -0.01202193       0.02982702       0.06533172      -0.01987962       0.00767714      -0.02999985      -0.01608932      -0.32318308       0.04528932       0.01436776      -3.97610012
H       -3.39381123      -0.67253369      -0.16407424       0.02540628      -0.18140353      -0.35521150      -0.06010963      -0.01270440       0.05471863      -0.02905122       0.04768059       0.03473620      -0.03367091      -0.00601308      -0.04283945       0.07136689       0.02550019      -0.17667926      -0.35497855      -3.93654016
H       -1.70322645      -0.69609272      -0.61972392       0.29127657      -0.27766377      -0.27652466      -0.03984956       0.01916065      -0.03998358       0.06179853      -0.07169386       0.04882485       0.01225149       0.05958330      -0.00318130      -0.00903307       0.26479109      -0.25264629      -0.27293699      -3.99847903
H        2.92704415       1.76593614      -1.31045246      -0.35077590      -0.27822292      -0.36905864      -0.04805589       0.08018312       0.05689779       0.01408447       0.05409601       0.06551761       0.00303129       0.09755525       0.04996590       0.00175388      -0.31949326      -0.26753325      -0.37676153      -3.98240781
H        2.98205304       0.64606988      -2.67319632       0.30450660      -0.15501648      -0.63670146      -0.05803176       0.07732899      -0.00795466      -0.06740365      -0.04873871       0.01319775       0.00679554      -0.02775376       0.01364813       0.03503519       0.29590836      -0.15053238      -0.63263052      -4.01465011
H       -2.14211035      -0.64083999       1.97411263       0.12722494      -0.54354829       0.17830792      -0.05796099       0.02038344       0.04138982      -0.01466908       0.03546395       0.09210185      -0.01629112      -0.00151002      -0.01431168      -0.00246510       0.13165293      -0.53797827       0.17026398      -3.98430484
H       -2.30006933       0.95058799       2.69256115       0.49251574      -0.35694286      -0.05376056      -0.05526287       0.05375591      -0.02584756      -0.06830303      -0.00636721      -0.00118564       0.02009012      -0.04597799       0.02715418       0.09961649       0.48123035      -0.36846734      -0.06222185      -3.93576501
H       -3.69145560       1.33405197      -1.89948809       0.42958984      -0.41542745       0.16595927      -0.06237752       0.03270958      -0.04282370      -0.02323847      -0.06351055       0.02845239      -0.01677463      -0.01124786      -0.01866723       0.00674268       0.43345267      -0.41900875       0.17310017      -3.99167464
H       -3.44705009      -0.34175402      -2.48133898       0.42851073       0.69596183       0.09707275      -0.06026986      -0.01772976       0.05031462      -0.01214718       0.06549996       0.02904621       0.02300494       0.04926687       0.01949076       0.05306895       0.42445908       0.70036426       0.08573282      -3.96666839
H        2.92766643      -0.48604637      -0.54835695      -0.98333180       0.06264999      -0.12878999      -0.05718317       0.07821299      -0.03144701      -0.00538946      -0.05924564       0.04858209       0.00433414       0.04625967      -0.02372770       0.03005168      -0.96755910       0.04604498      -0.10173169      -4.00012482
H       -0.04843951       1.58774531       2.08477402       0.10428938      -0.05153575       0.28808382      -0.04924791      -0.00508904       0.01752027      -0.05850483      -0.00409116       0.06937985      -0.04483672      -0.02742428       0.01581199      -0.05383475       0.11549990      -0.06367049       0.25397789      -3.97553307
H       -1.24663508       1.73829722      -2.20647097       0.18313178      -0.00816513      -0.08280823      -0.12295356      -0.52579955      -0.24816879      -0.01965306      -0.19578420      -0.31721210      -0.04924973      -0.16395493      -0.03167484      -0.29865801       0.17618604      -0.03706267      -0.08137980      -3.50398660
H       -0.99690002       0.24659786      -2.71345949      -0.40866175       0.01372560      -0.03966927      -0.10115462      -0.49140947       0.22893889      -0.19148440       0.28525152      -0.43093713       0.22716654      -0.08211095       0.11023249      -0.28852298      -0.32519741      -0.01493717      -0.06626294      -3.59048618
H       -1.91901374       1.28984952      -3.64313316       0.00122612      -0.31685618       0.51173902      -0.19153228      -0.28107164       0.02731835      -0.07495732       0.00408494      -0.19936331       0.04288025      -0.07023312       0.07556593      -0.38900423       0.00153676      -0.30274397       0.48705509      -3.36292101
42
Properties=species:S:1:pos:R:3:original_dataset_forces:R:3:LES_q:R:1:LES_BEC:R:9:forces:R:3:energies:R:1 original_dataset_energy=-189.8708953857422 energy=-189.86774335299864 stress="inf -inf -inf -inf inf -inf -inf -inf -inf" pbc="F F F"
O       -0.81338394      -4.14660978       2.17057657      -0.76517642       0.20373616      -1.35956478       0.28105783       1.30984558       0.35017162      -0.10523861       0.04578903       0.66918862      -0.27086251       0.03092419      -0.35726730       0.57652975      -0.77284758       0.18950930      -1.38331412      -4.69153041
O        0.62011749      -1.37726164      -2.59024191      -1.87246239      -1.00041699      -0.85850632       0.38766792       0.93408901       0.28203084       0.56362011      -0.01937832       0.99111514       0.19803531       0.38988943       0.23724649       1.19476500      -1.81930362      -0.99592383      -0.82307578      -4.44397598
O       -2.05072069       3.05157185       1.09161258       0.22091359      -0.97950488       0.04570317       0.26891738       1.08881912      -0.28540593      -0.01718967      -0.55860877       1.05955421       0.20611357       0.01988111       0.06005283       0.47246944       0.23828535      -1.03778806       0.00460530      -4.74116764
O       -0.05668753      -0.57569200       2.08963490       0.32345438       0.79158121       2.74889278       0.25356793       0.43194068      -0.16357537       0.03642287      -0.10337750       0.71965241       0.23154063       0.20575987       0.03176312       1.31413076       0.33810991       0.72213074       2.70904492      -4.69094132
O        1.93046689       0.11658895      -1.80823946       2.68435001       4.37666416       0.73165035       0.35178229       0.83886664       0.28303760       0.06981271       0.57685098       1.37215476      -0.11158053       0.13513822      -0.20053482       0.58629516       2.70049523       4.45513239       0.73191323      -4.46758265
C        0.38978332      -4.03382349       2.13767290      -0.51572484      -0.53494155       2.83003449      -0.06389481      -1.57298563      -0.73375954       0.33247225      -0.31297378      -1.19630046       0.83618078       0.05733831       1.00757393      -0.86142419      -0.49280047      -0.50494571       2.88798642      -5.30587006
C        1.46710825      -0.97284877      -1.76912308      -1.62851655      -3.45248461       0.95206666      -0.06457885      -0.84665727      -0.74362929      -0.78552538      -0.73974014      -1.56478077       0.04235533      -0.59353742      -0.05052563      -1.12236783      -1.72005068      -3.51903605       0.86752764      -5.12118605
C       -1.27137589       2.09996915       0.97307253      -0.70664316      -0.37163156      -0.81965530      -0.10992637      -1.76373297       0.23703938      -0.09261916       0.26280268      -1.18719862      -0.32142058      -0.08063323      -0.25714418      -0.19113480      -0.61971110      -0.28712752      -0.62384926      -5.21348787
C       -0.09139258      -0.93360746       0.95969772       1.17447889      -2.24138570      -0.87885755      -0.09118713      -0.58949301       0.55873698      -0.40252658       0.48426846      -0.86628434      -0.11997282      -0.40379583      -0.01297677      -1.64630555       1.15504948      -2.33083882      -0.89490699      -5.25314906
C       -1.22267985       3.17673874      -2.01545525      -1.04169238       1.39236987       1.95836055       0.00596563      -0.04029307      -0.17912234       0.15513753       0.19266660      -0.19674802      -0.07469242       0.03922930       0.10963277      -0.14063032      -1.01501468       1.39168910       1.85422628      -5.35470967
C       -1.54278982       1.86671031      -1.94113600      -0.29923111      -0.52380788      -1.37886941      -0.04717605      -0.20020239      -0.03542780       0.27359130      -0.19192775      -0.17057723       0.07703052       0.18712779      -0.11535479      -0.20624459      -0.39295262      -0.37544013      -1.48887757      -5.52576349
C        0.11888313       2.10259223      -3.40836906      -1.73568702      -0.12365319       2.03820467      -0.13183236      -0.19475266      -0.14064851       0.02831637      -0.06346293      -0.71368645       0.24234053      -0.06763721       0.05864371      -0.14256606      -1.68820675      -0.13805899       1.97526278      -5.47732494
N       -0.14133143       3.34394932      -2.84815264       0.27488965      -2.74993038      -1.11439538       0.00174357       0.12702427       0.13282195      -0.11436256       0.10329480       0.59621830      -0.14006904      -0.00864059      -0.14258792       0.12167753       0.23510769      -2.73310951      -1.08223797      -5.03571122
N        0.05075729       2.25405526       1.07886434       0.00340036      -1.57302952       1.24309754       0.12561016       1.12163293      -0.11448076       0.06019186       0.21062125       0.67416950       0.18891042       0.13907468       0.16786217       0.20381275      -0.03469994      -1.50150738       1.18980683      -4.59651947
N       -0.86781865      -0.33123341       0.06396443      -0.88941205       1.90784693       0.19714791       0.10899696       0.65303693      -0.37560142       0.45558097      -0.34895985       0.67309466      -0.24806631       0.31550234      -0.11411914       0.65383237      -0.87113397       1.92714025       0.17583022      -4.80500831
N        1.12236714      -3.12696600       1.47724068       2.20131183       1.11046052      -0.37096694       0.09944234       0.66933091       0.19603491      -0.22456119       0.32473984       0.90947102      -0.58269670      -0.19801718      -0.76222759       0.82292769       2.19851075       1.05126452      -0.35985494      -4.78106715
N       -0.79598558       1.20977736      -2.94599390       1.16675603       2.57489657       0.81319225      -0.00013064       0.15045872       0.23735033      -0.18943178       0.05675512       0.66770080      -0.36691841      -0.14726900       0.08818336       0.12545822       1.19830451       2.51079532       0.89607031      -5.12217251
C        1.21990633      -4.79969025       3.15802336      -0.60418856      -0.71798402       0.71019804       0.11317585       0.02739137      -0.00595819       0.04033002      -0.10476559       0.01861803      -0.11774707       0.12080923      -0.13408388       0.02832446      -0.60895581      -0.75414826       0.69628110      -4.53021616
C        0.54908627       3.54751301       1.45984709       1.26066911       0.37512416       0.12295312       0.06190534      -0.12199596       0.04776811       0.00977532      -0.14668471      -0.60569204      -0.18198761      -0.07108678      -0.21279947      -0.23747716       1.30772815       0.32557241       0.10460369      -4.69157863
C       -2.47568512       1.24101484      -0.98150563      -1.23867202       0.89172918       1.12216330       0.04386897      -0.18088877       0.07575426      -0.03673205       0.09114142      -0.13804582       0.07578281       0.08828187      -0.01292452      -0.06335408      -1.29250028       0.77452832       1.19033304      -4.84874410
C        1.78735161      -1.97401190      -0.57499862       0.82415414      -2.24250031      -1.50113237       0.09602807      -0.13167877       0.00093547       0.10374418      -0.06157776       0.11477870      -0.14818983       0.18623595      -0.21631305       0.09525677       0.94687394      -2.21838082      -1.45243317      -4.51856734
C       -1.79484963       0.74976444       0.33016658      -0.89519459       0.47455192       1.66340661       0.00445827      -0.40332144       0.32550123      -0.01507060       0.20212703      -0.25602885       0.06544081      -0.05971393       0.08863488      -0.10466378      -0.87099829       0.48986133       1.56916732      -4.92775914
C        0.64648050      -2.25048351       0.43540871      -0.86294687       1.32019961      -0.45385343      -0.00988933      -0.32585391       0.19722710      -0.07813460       0.07591646      -0.41621332       0.29787328      -0.08635701       0.39459765      -0.44669394      -0.96978261       1.41121598      -0.44315534      -5.08067539
H       -1.76338553       3.99299502      -1.43000627       1.35703397      -1.23981988      -0.98592955      -0.06392720      -0.05306336       0.02790234      -0.04776070       0.02259661      -0.05143362       0.05666811      -0.03140268       0.04099360      -0.09480012       1.40032190      -1.27323635      -0.99192454      -4.17957154
H        0.97909111       1.67742431      -3.84872437       0.88510144       0.42887798      -0.74383360      -0.06104293      -0.03692134      -0.02911817       0.05619414       0.00621172      -0.05598978       0.02554094      -0.03242994       0.02802666      -0.07881527       0.89198116       0.48007529      -0.75072453      -4.22859592
H        0.54669660       4.07040644      -2.74034739      -0.11430822       0.09419004      -0.45365161      -0.21625584      -0.29683355      -0.07686388       0.02466891      -0.07453393      -0.46916118       0.13128810       0.00743355       0.05098691      -0.26999872      -0.10353428       0.08589640      -0.42691659      -3.66156644
H        0.67731959       1.43070781       1.19052720      -1.04295552       1.05764389      -0.23504159      -0.19286653      -0.24123474       0.00664283      -0.00118267       0.04836239      -0.37579740       0.00322345       0.02480737       0.01252350      -0.24872314      -1.06063355       1.00062196      -0.21539469      -3.63278195
H       -0.75450867      -0.49003860      -0.87225157       0.71612644      -1.12683046      -2.56283307      -0.18168014      -0.22706808       0.00034619       0.02184072      -0.04012197      -0.21647092      -0.04290702       0.06114115      -0.00095522      -0.29574083       0.67262286      -1.11886625      -2.46999918      -3.62221452
H        2.12557602      -3.01072764       1.80771744      -2.15726137      -0.17970119      -0.92660713      -0.21360216      -0.27719997       0.02828991      -0.01757789      -0.00117732      -0.15746399      -0.06589772      -0.03660759       0.03470324      -0.19368277      -2.16719071      -0.15491997      -0.91608144      -3.50630446
H       -0.64617687       0.20425835      -3.09181356       0.37791583      -0.28142160       0.26779869      -0.19540508      -0.32746435       0.13499643      -0.09224106       0.11261300      -0.57383276       0.14693212      -0.04231114       0.02478836      -0.23364079       0.30687445      -0.24911920       0.30541894      -3.77246349
H        1.34480000      -4.15886688       4.04655313      -0.11020274      -0.21146494      -0.35356370      -0.04671552      -0.00750078      -0.00363671       0.02853084       0.00783457       0.01738234       0.04852835       0.02557921       0.01846596       0.08093064      -0.09002899      -0.21331240      -0.35619210      -3.97799635
H        0.79438597      -5.80199146       3.51864386       0.52884126       1.63827384      -0.95209426      -0.04095254      -0.00552549       0.06167519      -0.02010236       0.03408851       0.09640037      -0.04641260      -0.00931800      -0.04549990       0.00492399       0.52487591       1.64617050      -0.95451643      -3.98283118
H        2.16255498      -4.88625431       2.68020964       1.22494555      -0.75860429       0.12313474      -0.05074395       0.08073917      -0.03518470      -0.02145663      -0.01116289       0.00653906      -0.02470760      -0.01507446      -0.07382039       0.05296070       1.20500600      -0.71799595       0.11443476      -3.92271671
H        1.26567125       3.48844552       2.33004141      -0.56474805       0.08898274      -1.28151369      -0.05221253       0.02599009       0.07478405       0.07617270       0.00699525       0.04052573       0.02177472       0.08210904       0.10215937       0.06477355      -0.58047946       0.05591018      -1.27068585      -3.99157149
H        0.96445972       3.84359670       0.50432158       1.11290002       0.93547672       0.35711926      -0.05244900      -0.00579154       0.05914677      -0.00757722       0.03993732       0.10312056       0.02744410      -0.04551131      -0.01389443       0.04665920       1.08143633       0.99185023       0.37263583      -3.91937351
H       -0.20336539       4.30070114       1.68227875      -0.31691584      -0.65416873       0.16199699      -0.03060000      -0.06164654      -0.18090336      -0.06649934      -0.03085641       0.08869325       0.03794523      -0.01115969       0.01585620      -0.00471893      -0.33710077      -0.64205966       0.13841146      -3.95704251
H       -3.30554676       1.99681771      -0.74243695       1.49416137      -1.12889755      -0.03173522      -0.04146015       0.09711995      -0.09240333      -0.01578440      -0.10826395       0.06748475      -0.05880861      -0.10798901       0.01696493      -0.02103177       1.55318270      -1.15291599      -0.07265081      -3.92382555
H       -2.98438096       0.39345023      -1.33617938      -0.54455930      -1.07684612      -1.08926296      -0.06283384      -0.02440243       0.06986833      -0.01831892       0.01227815       0.08992212      -0.00569151       0.00484852       0.00785011       0.01477706      -0.52629717      -1.08333818      -1.06910390      -3.98233392
H        2.03260183      -3.02871609      -0.99256063      -0.86773473       1.62712896       0.08332263      -0.03823299       0.06277287      -0.10574991      -0.02833970      -0.09335990       0.20370623       0.04678982      -0.03340840       0.05895719       0.01335293      -0.88302824       1.61456681       0.08845567      -3.90187936
H        2.79440761      -1.80078101      -0.17582422      -0.60228688       0.86499596       0.72739154      -0.05166896       0.13801985       0.00007015       0.05395749       0.00907653      -0.01311591      -0.01848550      -0.01660655       0.05143570       0.05143369      -0.62298390       0.84632777       0.70897314      -4.00986055
H       -2.57502484       0.25211015       0.98684490       0.61408651       1.32850063      -0.56065100      -0.05689482       0.07622528      -0.02271803      -0.03645666       0.07708483       0.03574135      -0.06117660      -0.02946164      -0.02406599       0.06592693       0.62800059       1.32896330      -0.55047518      -4.01231462
H       -0.23278618      -2.71155477      -0.05956006       0.93701875      -0.31324640       0.01519401      -0.04820521       0.10320457      -0.06394470       0.04432945       0.00688090       0.00958950       0.00055204       0.00685747       0.03919235       0.01279597       0.95746854      -0.29715307       0.01538153      -4.01431803
48
Properties=species:S:1:pos:R:3:original_dataset_forces:R:3:LES_q:R:1:LES_BEC:R:9:forces:R:3:energies:R:1 original_dataset_energy=-209.58676147460938 energy=-209.49728084234144 stress="-inf inf -inf inf -inf -inf -inf -inf -inf" pbc="F F F"
O        1.03454041      -0.81284291       2.93456364      -1.41704524      -0.77737099       0.48732951       0.17768931       1.44789529      -0.16458122      -0.24173254       0.09460731       0.48114028       0.24219428      -0.13589922       0.06050876       0.68217632      -1.40375168      -0.81862777       0.52859232      -4.77678885
O        1.98882902       0.17736197      -1.01096129       1.47323477       2.74058819       2.56272483       0.28814405       0.68908751      -0.22220855       0.09751718      -0.12514219       1.50491257       0.47568092       0.17836794       0.16001408       0.95626039       1.47040316       2.79899545       2.61774194      -4.63155283
O       -0.17165580      -3.63666320       0.73612815       1.25366592       1.22007561      -0.95411336       0.29472789       0.72655366       0.45396835      -0.11495308       0.05842112       1.40476911      -0.20674805      -0.05175688      -0.27412423       0.37080272       1.16302702       1.15708639      -0.92129452      -4.67262038
O       -2.42687368       1.25850415       0.36567587       0.46792948      -2.13283134       1.08795440       0.27766058       0.61873500      -0.11340072       0.32965061      -0.39380641       0.86559477      -0.25779472       0.18552558      -0.07483862       1.02794739       0.45577626      -2.04402198       1.02612150      -4.71436933
O        1.22444403      -0.89851004      -2.65741086      -0.91921741      -1.10316122      -2.94654894       0.34647787       0.89666083      -0.04896787       0.60692131      -0.20709567       0.85911581       0.00666942       0.24258912       0.32593930       1.37108634      -0.94498594      -1.11007132      -2.99606641      -4.48478549
C        2.11840105      -0.72938383       2.39365077      -0.82916474       0.39688680       0.28271767      -0.06267509      -1.21289076      -0.01414643       0.71794030      -0.41618321      -0.64415030      -0.88494002       0.37787048      -0.48951308      -1.30012090      -0.82909815       0.33266711       0.17510679      -5.19002392
C        1.92235553      -0.86221135      -1.66315198      -2.20180821      -0.41225713       0.78140920      -0.07778792      -0.52513033       0.02497855      -0.81704035       0.20560700      -1.57989775      -0.47798401      -0.57815772      -0.42846065      -1.59282159      -2.15364822      -0.53056293       0.80679258      -4.99655989
C        0.41005108      -2.58098483       0.43668759      -1.06306744      -1.67938757       2.29379606      -0.08889663      -0.99743017      -0.08965447       0.09866853       0.17237460      -2.04822610       0.33635713       0.04312625       0.29951259      -0.17586927      -1.02437557      -1.62543240       2.29920869      -5.15101448
C       -1.76248682       0.37258804       0.99717635      -1.48996723       1.89675736      -2.73773742      -0.10115796      -0.73450392       0.20160667      -0.75553203       0.37968392      -1.03660656      -0.17115562      -0.69277373      -0.11870327      -1.22148024      -1.55661930       1.77872631      -2.82066095      -5.17705851
C       -0.42605847       2.39140892      -1.77541494      -3.43966103      -1.71818674       0.77774692      -0.08179598      -1.69664055       0.23208389      -0.27107116       0.09876123      -1.73361369      -0.33004145      -0.11928136      -0.73512553      -0.32051115      -3.55677494      -1.83919554       0.73348161      -5.47235109
N       -1.32421231       3.27130485      -1.39436889       0.40949017       1.51307106      -0.67439264       0.13480525       0.74966315      -0.36113717      -0.04543083      -0.34233700       0.90368399       0.09261376      -0.18782992       0.36832876       0.14694208       0.51926971       1.57817262      -0.60780684      -3.90854324
N       -1.06696296       0.73549700       2.04326510       1.80428660      -3.18274665       0.24324809       0.12896246       0.62673760      -0.15402725       0.42328987      -0.04595509       0.60302270       0.39549815       0.44971594       0.08477262       0.84835740       1.78615880      -3.01694758       0.31343041      -4.61849710
N       -0.78212845       1.21190786      -2.28121686       0.38214689      -0.37030867       0.54993194       0.12916064       0.62866594       0.11367658       0.22281601       0.16185613       1.21772457       0.16649612       0.16267114       0.35926354       0.36347676       0.38753107      -0.35424333       0.46985525      -4.38048658
N        2.56300092      -1.44697595       1.38671517       2.50461817      -1.95644486      -2.18040800       0.09330587       0.54858387      -0.08468550      -0.18707946       0.04164794       0.46381346       0.63393478       0.00445189       0.23836784       1.05261680       2.64168889      -1.91454306      -2.13537376      -4.60035835
N       -0.24196209      -1.41249251       0.33485657      -0.83724684      -0.34454346      -0.67603678       0.11292004       0.81336009      -0.48912114       0.07215811      -0.31254548       1.26226727      -0.06714144       0.02080714      -0.05049253       0.29030293      -0.80797495      -0.42463520      -0.71337054      -4.72840567
N        0.78885961       2.60356474      -1.45420575       4.63744497       0.53575116       0.81726301       0.13119090       1.16031112       0.09506997       0.15772462       0.04373005       0.65703513       0.02313483       0.19229408       0.21357957       0.18315137       4.53854739       0.51380020       0.75600379      -3.91810590
C        2.97780395       0.40893507       2.77475405      -0.49503306      -1.13884628       0.36395299       0.10486081      -0.14811669       0.10150909      -0.17397510       0.08540943       0.08492947       0.03338234       0.02991687       0.05844439      -0.03352547      -0.48652921      -1.17611136       0.32799720      -4.64643089
C       -1.29450941       1.90524316       2.75802755       0.96164793       1.06639600       1.20477235       0.06538294      -0.16922474       0.10308996       0.15115499       0.05826153      -0.41329461      -0.24513302       0.02682096      -0.11461819      -0.18835800       1.00141183       0.96994467       1.14604783      -4.84516192
C       -2.10166645       0.61488295      -2.56951976      -0.16094385       0.96099240       1.74411702       0.02597676      -0.42432857      -0.10527290      -0.14411408      -0.11929428      -0.26410799      -0.04799304      -0.07889996      -0.05034342      -0.24122026      -0.04702352       0.99857769       1.81781567      -4.82456657
C       -2.23188138      -0.90369034      -2.16303158       1.46859097       1.24564767      -2.00536466       0.09397606      -0.04104333       0.02720349       0.07904020      -0.00238607      -0.14443158       0.02469034      -0.00305527       0.00775217      -0.14582775       1.50577183       1.26170251      -2.04497904      -4.66102033
C        2.41131568      -2.14340115      -1.06538916       1.59546685       0.77384281       1.19657648       0.05464295      -0.09351752      -0.02788111       0.06747704      -0.15828392       0.22585764      -0.04525038       0.17676916      -0.08521206      -0.02887383       1.54438494       0.72123655       1.20292970      -4.75405206
C       -2.61205363      -1.27130699      -0.75923425       0.21097694       0.97564495       0.26793277       0.07449897      -0.09331524       0.03639692      -0.03590024       0.11102007       0.04868053      -0.00475673       0.13716476       0.06335830      -0.10983636       0.14959756       1.05611745       0.35598363      -4.79675130
C        2.00120974      -2.49520588       0.40120310      -0.95515984       2.28227925       0.03084061      -0.01414833      -0.19163295       0.06141908      -0.11241467      -0.15299421      -0.21657808      -0.22541286      -0.22730643       0.03083608      -0.53895754      -1.07078570       2.44716886      -0.07191725      -4.97022632
C       -1.68838394      -1.09422278       0.46465415       0.76950985       0.93710262       0.09713112      -0.01717717      -0.57414939       0.14725225      -0.03994322      -0.07422377      -0.16683369       0.02215326      -0.09487261      -0.02069986      -0.14159304       0.95178617       0.84699414       0.16306553      -5.04790939
H       -2.27021837       3.03957105      -1.38445377      -1.40299511      -0.05205674       0.17442128      -0.17588717      -0.26953789      -0.02558010       0.00657386       0.04605346      -0.36874474       0.09838248       0.01130136       0.08829677      -0.23970964      -1.40297272      -0.04105752       0.15349598      -3.56295607
H       -0.96711361       4.17593288      -1.16736746      -0.54245055       0.23077002       0.21520436      -0.18661739      -0.20802053       0.00387200      -0.00588302       0.01543949      -0.33369254      -0.02280494       0.05033837      -0.10531373      -0.17306102      -0.58971598       0.27322555       0.22586970      -3.53656212
H       -0.30539042       0.09600973       2.40043521      -1.23157978       0.58817559      -0.29235387      -0.11324506      -0.49999641       0.26800887      -0.08320900       0.29541340      -0.30256003       0.08011192      -0.16921523       0.12520281      -0.23869605      -1.20133375       0.58070706      -0.33246391      -3.88732069
H       -0.07292727       0.51252103      -2.18047237       0.93721533      -0.53641832      -0.57473958      -0.14333788      -0.41064445       0.21097630       0.09215485       0.20959376      -0.42382327       0.02260077       0.01402568      -0.06141283      -0.23687385       0.90080620      -0.59578129      -0.52098629      -3.74356026
H        3.58967805      -1.25287879       1.27184558      -1.79693067      -0.52554309      -0.56135100      -0.20296822      -0.37353392       0.04205840      -0.03047394       0.10388925      -0.17178805       0.10369706       0.08046260       0.02780742      -0.13881139      -1.79096502      -0.50289536      -0.52989313      -3.50852091
H        0.38665017      -0.70382363       0.09207010       0.53048515       1.74978125      -0.44927755      -0.16727060      -0.23397291      -0.08221943       0.07584111      -0.12998469      -0.23031401       0.06408687       0.08585630       0.02111269      -0.23569580       0.49634722       1.80707757      -0.35256472      -3.71150521
H        1.32929695       1.73035979      -1.47391391       0.82482344      -0.14808518       0.05207616      -0.10214949      -0.26539319       0.18653416      -0.02241990       0.31097944      -0.63674824       0.01610604      -0.02510706       0.12118687      -0.15459238       0.83550368      -0.18041272       0.09593828      -3.75097096
H        1.15637803       3.30833220      -0.78494912      -1.14574909      -0.85853636      -1.02971041      -0.19183022      -0.27184880      -0.10864573       0.01850767      -0.05310806      -0.23649095      -0.05646146      -0.04274116      -0.08763587      -0.19574432      -1.13692011      -0.86864131      -1.02960141      -3.54302074
H        3.03475642       0.99446368       1.92227554      -0.28348374       1.91910446      -1.23281395      -0.04550180       0.01841913       0.00871599       0.03166971       0.01579101       0.00941310       0.00574954      -0.06895292      -0.04580701      -0.02803161      -0.28846202       1.95238881      -1.20477691      -3.90443090
H        2.58196020       0.76370347       3.67922258      -0.50638545       1.22339356       0.74511254      -0.04416260      -0.00574007      -0.01662383      -0.04906698       0.05832039      -0.02549815       0.05306814       0.04575284       0.02612103       0.10736168      -0.51604630       1.26944638       0.75347724      -3.89018776
H        3.94791603       0.12635529       2.95213819       2.50279093      -0.88324529       0.52909267      -0.05097879       0.12285234      -0.04165963       0.07790708      -0.04015066      -0.00807315      -0.01261635       0.00020969       0.00144113      -0.01648501       2.49063471      -0.91242362       0.55001035      -3.88401221
H       -0.50112212       2.62054110       2.58686519       0.46872303       0.25799787       0.21464704      -0.04986989       0.01554372       0.06140657       0.00819128       0.02827750       0.07659768       0.04725816      -0.02297758       0.00884305      -0.01446218       0.47282802       0.21043981       0.18968893      -3.94435161
H       -2.16371274       2.42056274       2.44617510      -1.14051354       0.05133220      -0.11525628      -0.03385632       0.06259372      -0.08571628      -0.06897560      -0.03720432       0.01682843       0.02389994       0.05166770      -0.07183233      -0.06312438      -1.17578447       0.05560295      -0.10380640      -3.95285039
H       -1.29591465       1.59663630       3.80488491      -0.22202989       0.65753257       0.09142246      -0.05051357      -0.01753350      -0.02475591      -0.04985009      -0.02414499       0.02943478       0.04625057      -0.02108326       0.04462152       0.12954633      -0.25648024       0.67634815       0.10342276      -3.94212480
H       -2.17789459       0.73345542      -3.61421084      -0.67939597      -0.18342355      -1.22163689      -0.06568979      -0.00269129       0.03377280       0.00407769       0.07668121       0.00489987       0.04041603       0.06095802      -0.01737711       0.07707018      -0.66181109      -0.17269225      -1.15051614      -3.96967542
H       -2.81690073       1.27932286      -2.04127812      -0.06195449      -0.91420066      -0.50692457      -0.03970355       0.06303041      -0.00718775      -0.01895956      -0.02733809       0.10227288       0.03270094      -0.07017212       0.03446359      -0.12161871      -0.03418837      -0.89874239      -0.53583427      -3.96121536
H       -1.23657620      -1.33271337      -2.43394542      -0.60196882       0.13758115       0.38009867      -0.03914449       0.01778388      -0.05959496      -0.01403142      -0.08068057       0.00599243      -0.02123998      -0.02298296      -0.00918535       0.02724741      -0.58358484       0.15138800       0.32105908      -3.95590648
H       -2.90075040      -1.35076261      -2.95187259       0.28583243       0.37061861       1.18844330      -0.05731472       0.00548740       0.04443523       0.01594684       0.02268799       0.04690913      -0.00241351       0.07379163       0.04575256       0.10484951       0.27795451       0.35433721       1.18989911      -3.94126312
H        2.01681089      -2.88762665      -1.65685654      -0.66130704      -1.82448649      -1.28883994      -0.05663115      -0.00717631       0.03345418       0.00684725      -0.02295631       0.05873073       0.05003146       0.00970827       0.04324576       0.04019078      -0.65091994      -1.79924488      -1.31429462      -3.89959694
H        3.47622681      -2.05384254      -1.30023253       0.27574715      -0.69822472       0.78724945      -0.05301180       0.19090924      -0.09080632      -0.06827374      -0.00364948      -0.01374321      -0.00681791      -0.08742680       0.03072392       0.00443576       0.25292421      -0.69235403       0.77346736      -3.95694228
H       -3.60665417      -0.91766095      -0.50768423       0.07009416       0.41097057       0.19293159      -0.05096008       0.06178415      -0.07040454      -0.01146243      -0.11880405      -0.06530481      -0.03923308      -0.05214379      -0.02417146       0.03844953       0.04731473       0.38712595       0.17012458      -3.95062311
H       -2.71205258      -2.29289484      -0.77552521      -0.37101975      -2.63503575      -0.25544757      -0.06328609      -0.03278988       0.00609688       0.00469093       0.09275790       0.09966336       0.03328990      -0.03215931      -0.02446512      -0.00817386      -0.35162474      -2.58760112      -0.24896920      -3.84838013
H        2.30511999      -3.48304486       0.68778604       0.34639069      -0.26850823       0.09044089      -0.06572255       0.02179173      -0.01600049       0.00655219       0.05412032       0.01860775       0.00493107       0.01502731      -0.02611933       0.07297634       0.36420097      -0.24980040       0.09924124      -4.04619052
H       -2.10753727      -1.78582263       1.19560933       0.27098686       0.19904293       0.25588730      -0.06141749       0.01435352       0.00669315      -0.01152677       0.04688306       0.01262404      -0.04944764       0.05760422       0.02595449       0.00882751       0.26850790       0.17676199       0.26930726      -4.00308164
46
Properties=species:S:1:pos:R:3:original_dataset_forces:R:3:LES_q:R:1:LES_BEC:R:9:forces:R:3:energies:R:1 original_dataset_energy=-201.89422607421875 energy=-201.89272279525713 stress="inf -inf -inf -inf inf inf -inf inf inf" pbc="F F F"
O       -0.62102127       2.13480902       4.59489107       0.26703006      -0.66032165       0.05850729       0.27660611       0.31526643      -0.07328861       0.02878602      -0.07455131       0.82360915      -0.43195705      -0.04497195       0.00235541       1.38452752       0.25634637      -0.62336924       0.00957490      -4.72764010
O        0.64633781      -1.28783798       1.39077199      -0.90852427       0.11167217       1.10090375       0.29151484       1.21747596       0.05596255      -0.03144873       0.44466730       1.19244607       0.10729726      -0.04840680       0.16235531       0.57626302      -0.88287183       0.10590686       1.11459783      -4.65760994
O       -1.41501069       2.22727990      -0.15783095       0.17428881       0.10085149       0.13421547       0.23604766       0.45859964      -0.19333920       0.03454470      -0.23102322       1.31233690       0.04429338       0.08293010      -0.21456659       0.99432746       0.14839012       0.08154152       0.11036558      -4.73423844
O       -0.36425000      -0.66291046      -3.51693892      -0.86940622       0.92270154       1.09449172       0.28104144       0.47550728      -0.06430669      -0.34604028       0.11075503       1.07902900       0.26933896      -0.06803305       0.41530481       1.04552644      -0.85387046       0.94202417       1.03696676      -4.71832933
O        2.54706573      -0.60238516       0.64730406       1.39630318       1.08036220      -0.24279442       0.32002819       1.40163663       0.01720251      -0.31422615      -0.19693288       1.01260383       0.25634674      -0.54279385       0.18890642       0.63192191       1.30885881       1.07970541      -0.18790063      -4.56275131
C       -0.71004158       2.94459343       3.69732451      -0.18015532      -0.28277183      -0.69111389      -0.06659022      -0.10185039       0.13334997      -0.00218027       0.13729919      -0.99204504       0.20047954       0.10024878      -0.25828201      -2.22001436      -0.16244874      -0.33114767      -0.61957020      -5.33708289
C        1.48868585      -0.34943569       1.24275637      -0.66537869      -1.08954561      -0.76364088      -0.09358911      -1.77601752      -0.16281057       0.47667243      -0.32233376      -1.24498445      -0.18602973       0.70589733      -0.15720265      -0.44197916      -0.63075676      -1.11382745      -0.82716631      -5.10568903
C       -1.09716177       1.20400846       0.45348689       0.05668983       0.76303476       0.18571913      -0.09102066      -0.26632957       0.08196052      -0.45679083       0.24165632      -1.95809994      -0.19025307      -0.42687771      -0.00528184      -1.03831870       0.07811606       0.76789344       0.20764112      -5.32316311
C       -0.66013432       0.13948336      -2.60481215       0.99200046      -2.70174098      -1.30247784      -0.09774088      -0.45926868      -0.33823888       0.42474758      -0.36275339      -1.49874041      -0.42468493       0.33311166      -0.45983960      -1.02846666       1.00367018      -2.60993691      -1.24811000      -5.28490862
N       -0.12343001       1.33927643      -2.54033566       0.59018683       2.10601854       0.97389984       0.10590716       0.44086885       0.42662087      -0.13920030       0.30944033       0.96837247       0.18173494      -0.18443945      -0.00179886       0.45900235       0.57313563       2.08781843       0.92659877      -4.77688341
N       -0.66106534       2.64702296       2.36572051       0.01752014       0.33746457      -0.02398564       0.13804524       0.29789444      -0.10249033      -0.02733190      -0.16123455       0.79200835       0.58447767      -0.07552138       0.39508084       1.48803462       0.00683822       0.34083409      -0.10778749      -4.69777060
N       -1.23642802      -0.00433269      -0.08240741       0.15795565      -0.68313819      -0.38499659       0.10796306       0.33337862       0.17514343       0.19252401      -0.03889659       1.18571129       0.21775359       0.15827222       0.35943299       0.74636728       0.20303084      -0.69285003      -0.37639366      -4.81211393
C       -0.95120037       4.38836527       4.00455093      -0.51296717      -0.54280299       0.26492020       0.09881513      -0.11411845      -0.04900067      -0.01772842      -0.03117646       0.07799504      -0.01614162      -0.00661118       0.02242624      -0.07163662      -0.51848783      -0.53847506       0.26168095      -4.69162313
C        0.88878518       1.93388629      -3.41247797       0.73830503      -0.65094119      -0.89588010       0.06847611      -0.32633185      -0.16595922       0.15504126      -0.12270498      -0.20853612       0.04669925       0.15280396       0.18743235      -0.30635743       0.73963747      -0.65273456      -0.88831286      -4.74370552
C       -0.92440289      -2.76971364      -1.02091968      -0.13698016       0.89012635       0.06830714       0.09567725      -0.11520968       0.00074237       0.02226733      -0.01744801      -0.03639989      -0.00550945      -0.00265298      -0.08056936      -0.15754132      -0.15525209       0.88546036       0.09232467      -4.68373361
C        0.49974674      -2.71393156      -1.61271298       0.08511904       0.37313569      -0.64053744       0.10470616      -0.09232664      -0.10123896      -0.01773692       0.02261529      -0.15973955      -0.01223339       0.06267730      -0.08026987      -0.07425331       0.05115698       0.31833365      -0.62777192      -4.61962307
C        1.12340212       1.06045675       1.72991216      -0.52110124      -0.81718868       0.75335193       0.06236978      -0.11985165      -0.08815288      -0.04628435      -0.01539803       0.19836110       0.13111551       0.03462998       0.13209639      -0.00175311      -0.49241416      -0.80497663       0.77835603      -4.78078864
C       -2.03762221      -1.78553891      -1.55724037       2.84721828       0.13519898      -0.35702294       0.10256997      -0.05367533       0.03242488      -0.01482381       0.04550338      -0.16070367      -0.00568065      -0.02782341      -0.02880896      -0.08477061       2.85941274       0.10741251      -0.30958904      -4.69719609
C        1.50453186      -3.71185017      -1.01448047      -0.57468086      -1.09332156      -0.61552906       0.01793980      -0.23411025       0.04804850      -0.12332349      -0.07246904      -0.14892388      -0.06441600      -0.18157462      -0.02091144      -0.42603094      -0.58487255      -1.05380340      -0.65386232      -4.76037948
C       -0.41944131       1.31220281       1.83917606       0.58652860       0.28982136      -0.18923301      -0.01449837      -0.22724103       0.12029741       0.20832221       0.07624263      -0.53161272      -0.33835873       0.13184991      -0.32198769      -0.31906417       0.59864511       0.29401716      -0.13978822      -5.13287288
C       -1.63086033      -0.29411787      -1.45820093      -1.32872999       0.54508442      -0.56655079      -0.00659422      -0.24472659      -0.10871441      -0.20328565      -0.13515405      -0.27005935      -0.17022275      -0.18606586      -0.16151875      -0.44891768      -1.31184990       0.52345085      -0.59703096      -5.03557846
N        2.10089946      -3.19688439       0.22851965      -0.91675079      -0.67573750      -0.01175146       0.00716485       0.33777903      -0.12010650       0.13411012      -0.12572485       0.53764213       0.08429799       0.02225772       0.25138236       0.38225033      -0.91209922      -0.68710338      -0.02755852      -4.30977755
H       -0.40361759       1.89572215      -1.73960602      -0.10341957       0.04243162      -0.20516656      -0.15394194      -0.23324294       0.06547317       0.17990954       0.10512538      -0.23076716      -0.08296473       0.16751031      -0.07764576      -0.48961973      -0.12201932       0.02570393      -0.17262444      -3.77823264
H       -0.75273347       3.43835998       1.73050725       0.03534815      -0.86171645       0.04070095      -0.20046268      -0.19436310      -0.04526839      -0.03865192      -0.01347579      -0.27906311      -0.02247406      -0.02241105      -0.00603414      -0.26862663       0.04262147      -0.85909941       0.07213981      -3.60254868
H       -0.97203583      -0.79959345       0.47453567       0.49862388       0.14750686       0.23266529      -0.16993907      -0.39207082       0.09001537      -0.11426426       0.10740988      -0.27760717       0.08518750      -0.08230857       0.12717526      -0.19566051       0.48102864       0.14401871       0.21529320      -3.70695253
H       -1.25612247       4.92565680       3.12272549       0.03349527       0.45506868      -0.14890139      -0.04955555      -0.01576937      -0.02256513       0.01997471      -0.00711199      -0.00877517      -0.07333227       0.02471111      -0.05392002       0.04541240       0.03514500       0.46372124      -0.14469991      -3.96533412
H       -1.79579067       4.32674932       4.71082592       0.63269329       0.62565756      -0.03166199      -0.04548665       0.03930802      -0.04706021      -0.07318331      -0.00026235       0.02788596       0.00817895      -0.05850293       0.04939819       0.04275184       0.62626175       0.62948734      -0.02334386      -3.93388690
H       -0.02168393       4.76302910       4.42679405      -0.33628601       0.34414759       0.22353309      -0.05159153       0.03239916       0.07955770       0.07439996       0.01515929       0.04941907       0.04341853       0.02481186       0.07033340       0.02546273      -0.33393117       0.34259429       0.21802228      -3.99286594
H        1.90003037       2.04967117      -2.96018124      -0.87729734      -0.18866538       0.27896917      -0.05061312       0.08900554       0.04597264      -0.01701146       0.01945221      -0.02397336      -0.00590208       0.02006249       0.00529130      -0.01027022      -0.87435397      -0.18662483       0.26588115      -3.97640325
H        1.07430243       1.26454401      -4.27914762      -0.48275220       0.47693458       0.53071505      -0.03464396      -0.00548535      -0.00051168      -0.02355517      -0.03706126      -0.01721659       0.06231126      -0.03943578      -0.01856223       0.09634043      -0.47929247       0.45310187       0.51683174      -3.96053659
H        0.59698516       2.93259597      -3.77357507      -0.16912587      -0.51300490       0.18057629      -0.05311431      -0.00139906      -0.01599000      -0.00319830       0.00992168       0.05763163      -0.03631682      -0.02960993      -0.07072986       0.04604330      -0.17710858      -0.50472058       0.19059170      -3.99380991
H       -0.89497352      -2.63190794       0.05028799       0.23738432      -0.23018262       0.34900478      -0.04265867      -0.01874069      -0.06874430      -0.03980111      -0.01560984      -0.02344036      -0.00862451      -0.03736851      -0.00614289       0.09504487       0.23202678      -0.18749139       0.31017364      -3.93862634
H       -1.26963592      -3.76002121      -1.20568931      -0.49335557      -0.84830970       0.00233988      -0.06340539       0.01910905       0.02738813       0.00615603       0.03211059       0.11017033       0.01459797      -0.00518954      -0.00723842      -0.03506265      -0.45820608      -0.87133738      -0.02076151      -3.93563554
H        0.42684108      -2.96853328      -2.69201636       0.12508661       0.47426984       0.69490230      -0.04895926       0.04067419      -0.00407152       0.01288049      -0.00184041      -0.04972318       0.02190384       0.00636799       0.00373470       0.11840271       0.15557823       0.44565512       0.73663759      -3.94525502
H        0.94571441      -1.71077335      -1.51481271      -0.27799094      -0.35927901      -0.25886992      -0.03349618       0.03748455       0.08073559       0.00276595       0.04323369       0.09193057      -0.01516339      -0.03238154      -0.00534066      -0.05956614      -0.26263049      -0.34896227      -0.29675812      -4.02940950
H        1.57926679       1.82487154       1.12842774       0.30877444       0.17933972      -0.27783000      -0.05735945       0.03645958       0.03756366      -0.03139522       0.06656380       0.06370223      -0.02781104      -0.02806985      -0.02523946       0.00690040       0.31421693       0.15204405      -0.27958313      -4.04023521
H        1.51133418       1.13033748       2.76496339      -0.14072034       0.14459698      -0.54445475      -0.05039281       0.03763515       0.03160648       0.07642799       0.00671369      -0.00398914       0.03056298       0.03244449       0.02494981       0.05589758      -0.14092358       0.13141638      -0.54392669      -4.01111736
H       -2.22425032      -2.07960749      -2.57261801      -0.19508055       0.34192112      -0.49715918      -0.05272829      -0.03458129      -0.06175996       0.02534420      -0.04275013       0.01431451       0.02570686       0.05701409       0.05132518       0.06905464      -0.19391139       0.35430279      -0.48496018      -3.97384392
H       -2.91770601      -1.90007341      -0.99388647      -1.03640592      -0.36357552       0.79710782      -0.06310708       0.09465261      -0.01723339      -0.03928728       0.01256666       0.04234148      -0.00141563      -0.06258817      -0.03798160      -0.00092423      -1.05970820      -0.36640792       0.79651658      -3.96233324
H        0.97118562      -4.66502476      -0.79616219       0.57936519       0.54315907      -0.07530015      -0.05907117      -0.00938334       0.06236370       0.01827873       0.03785429       0.03894398      -0.02670208       0.01772160      -0.02679580      -0.00100244       0.56670380       0.53863766      -0.07479870      -3.95048365
H        2.32531047      -3.91467571      -1.72217643      -0.45173064       0.09257344       0.31013513      -0.06190819       0.06771770      -0.06993528      -0.03710850      -0.02817310      -0.03133918       0.00545960      -0.02729614       0.02463904       0.04105518      -0.46287321       0.08721458       0.34252142      -3.96822826
H       -0.79448223       0.59931076       2.55928969      -0.28171480      -0.17822221      -0.04002892      -0.04925900       0.00997414       0.03026157      -0.01641530       0.03059225       0.05292883      -0.00855118       0.00287634      -0.08840049      -0.02756539      -0.28612834      -0.17873243      -0.05551012      -4.05002266
H       -2.55143523       0.30306122      -1.62899196       0.43930644      -0.25625125      -0.09646655      -0.05727241       0.04803380      -0.02265915       0.02413373      -0.05146309       0.04678251      -0.04107856      -0.01896769      -0.00103037       0.02036157       0.43003664      -0.24869945      -0.09482375      -3.99089709
H        2.69465590      -3.80385637       0.76007926       0.44379064      -0.49780849      -0.08756322      -0.20273343      -0.28393382       0.11154957      -0.04575622       0.13624278      -0.36915499       0.05583466      -0.03541046       0.02305147      -0.22672514       0.43555812      -0.50400356      -0.08880585      -3.35707950
H        1.35140491      -2.87977481       0.84312999      -0.58261770       0.59096557       0.63329530      -0.12784053      -0.31255494       0.24154130       0.08644263       0.15105166      -0.56216125      -0.11359070       0.09132699      -0.08667368      -0.24488125      -0.60370905       0.62244862       0.65609251      -3.40368850
H        2.53004932      -2.29251814       0.09124276       0.80291468       1.37485099       0.04032622      -0.11908253      -0.19827794      -0.05233596       0.01629952      -0.05662822      -0.68911069      -0.16758254       0.04578618      -0.19389849      -0.19194009       0.81330346       1.43955854       0.03263016      -3.46675201
45
Properties=species:S:1:pos:R:3:original_dataset_forces:R:3:LES_q:R:1:LES_BEC:R:9:forces:R:3:energies:R:1 original_dataset_energy=-202.2082977294922 energy=-202.1752569839775 stress="inf -inf -inf -inf inf -inf -inf -inf inf" pbc="F F F"
O        3.12195969       0.12655926      -1.58919716      -0.66830486       1.69077849      -0.10323608       0.31435311       0.95144522      -0.10250812      -0.02803471      -0.38942729       0.99277292      -0.29486783       0.17122992      -0.30653308       0.54244790      -0.67705597       1.70857093      -0.11604112      -4.60086823
O       -1.43728924      -2.01180887      -1.35001206      -2.08257294       1.08121514      -1.74222136       0.37687874       1.36102982       0.03036049       0.38254429      -0.23595688       0.75126072      -0.31045780       0.53110912      -0.22738067       1.00156367      -2.13861312       1.09022848      -1.76199878      -4.50822592
O       -0.09243435       0.74236751       3.53311181       0.01581430      -0.97142094      -1.35879529       0.29903409       1.24024719       0.00863738       0.12833278      -0.21374275       0.59334613       0.39246516      -0.31978193       0.24599899       0.76922463      -0.10477320      -0.84251550      -1.27981105      -4.59257001
O       -0.01767755       1.59413159       0.55820930       1.62371182      -2.70088983      -2.09563112       0.27018330       0.56482301      -0.12329579      -0.15533633      -0.01267459       1.17221708       0.08121509      -0.15363032       0.31787008       0.80278850       1.57478412      -2.61078712      -2.04695093      -4.63251332
O       -3.58865476      -1.50847435      -2.01584482       1.88059402       0.11573340      -0.10669578       0.34341702       1.59374587      -0.00054101      -0.00868844       0.14104865       0.53485830      -0.12664884      -0.12292993      -0.08615548       0.87621289       1.92469741       0.07523773      -0.13526047      -4.59989324
C        2.64645696       1.18398523      -2.06807113       3.66354203      -2.45941472       0.53543878      -0.06828558      -1.89479939       0.11839641       0.05723382       0.30550018      -1.07600497       0.47017912      -0.25425753       0.45713205      -0.29551695       3.66237121      -2.50479812       0.54943816      -5.32655283
C       -2.31955171      -1.40539241      -2.11008501       0.56028271      -0.08321983       2.40566874      -0.05362951      -2.15035953      -0.00252288      -0.24142059       0.16681104      -0.65371892       0.76191936      -0.31488693       0.54942392      -0.85616624       0.53997184      -0.05317813       2.38472195      -5.01470081
C        0.76462233       0.20292902       2.80678582      -1.63914919       0.44903105       1.69864285      -0.11724545      -1.70215977      -0.09041119       0.04380296      -0.05770087      -0.61783876      -0.53801208       0.13135064      -0.52071999      -0.73465256      -1.50570310       0.22117195       1.57097390      -5.06345055
C        0.30416751       0.54641819      -0.11924654      -2.09842515       1.54734588       3.41960526      -0.09178510      -0.19242670       0.16035708       0.18032003       0.17924023      -1.68328087       0.03903083       0.14530150      -0.05233170      -1.06231889      -2.01907454       1.64132049       3.25654208      -4.94749399
C       -3.11970568      -1.95917499       1.44208884       1.52807140       0.94937426      -0.10706914      -0.00448287       0.11690950      -0.04700074      -0.03655709       0.24432228      -0.14569307       0.03162177      -0.41300979      -0.27128334       0.09019740       1.73770465       0.93154982      -0.00905262      -5.16697730
C       -2.08435106      -1.24508262       1.93775511       0.89106935      -0.30659425       0.45541316      -0.03680433      -0.28356992       0.26388234      -0.28363247      -0.07667566      -0.14827610      -0.05603722      -0.00873631       0.15763465      -0.19744418       0.77549113      -0.39193305       0.31138202      -5.42158394
C       -3.42661786       0.22007948       0.87458855      -0.20186096      -2.97987223      -0.49511772      -0.14051133      -0.84537164      -0.24908467       0.04905298      -0.55138871      -0.29641157       0.04394424      -0.32732209      -0.07046436      -0.16924103      -0.28953922      -3.09781830      -0.47360464      -5.63329819
N       -3.94005752      -1.04838824       0.78109843      -0.25143638      -1.21412420      -1.07992303       0.06977137       0.63586484       0.25962367       0.05106041       0.36318220       0.28654250       0.01647303       0.18809688       0.07994164       0.17634768      -0.28687383      -1.14961208      -1.28563568      -4.64909929
N        2.01972270       0.56985831       3.02514553       2.29216146      -1.78860235      -2.32570410       0.14848024       1.01737907       0.03797040      -0.28877889       0.16276312       0.35482740       0.01274317       0.14607037       0.18774515       0.41524049       2.27317109      -1.67464916      -2.26853022      -4.56538226
N        0.25827968      -0.69416070       0.48918480       1.32842875       0.82605308       0.25611383       0.13598192       0.30727295       0.05934847      -0.06312244      -0.02627567       1.06190822      -0.15079634       0.00367978      -0.32527137       0.83917716       1.50392664       0.80115243       0.28697256      -4.59785228
N        1.37276602       1.34464836      -2.22771454      -3.48866224       3.32727098      -1.80533195       0.07704224       1.54063040       0.04725768      -0.17186980       0.22237632       0.49945241      -0.36529053      -0.06527209      -0.24037169       0.41300737      -3.48518904       3.35770069      -1.86060470      -4.73551669
N       -2.33317041       0.05757523       1.57351303       1.84454513       1.48124242       0.83543503       0.00079611       0.68265476       0.13107160      -0.04536594       0.24589609       0.25349190      -0.05030619       0.44616446       0.05915284       0.04647096       1.86933003       1.66880799       1.07490584      -5.15904470
C        3.55411339       2.29573441      -2.56509352      -0.10254496       1.19497848       2.03796268       0.10126840      -0.02804368       0.06547164      -0.02183877       0.07300650       0.00310813      -0.07591617      -0.01568640      -0.06635497      -0.14294399      -0.10503141       1.18278664       2.02619904      -4.54732949
C        3.30117702       0.16931194       2.36155796      -0.84991032       0.26063776      -0.51459998       0.04822083      -0.40186792       0.08005550       0.15346728       0.11007349      -0.14395711       0.02697843       0.12828133      -0.00899869      -0.23339930      -0.68870826       0.21273397      -0.53335960      -4.66030148
C       -1.67037773      -0.28574079      -2.98983788       0.53871489      -1.03264940      -0.72845668       0.08912148      -0.00061975       0.10248863      -0.12856283       0.10492695       0.06021598      -0.18470852      -0.02370604      -0.12676449       0.07450527       0.49119957      -0.96557871      -0.68905903      -4.71828961
C       -0.74247307      -1.79477763       2.49805331      -2.09146643      -1.24537635      -2.52553844       0.05337558      -0.13854939      -0.13787557       0.22162301      -0.06273940      -0.14670893      -0.01838771       0.03394240      -0.03058600      -0.09259865      -2.03698838      -1.43790614      -2.42037444      -4.74956870
C       -1.02050447       0.81937456      -2.15316892       0.12244838      -1.96775055      -0.72100872       0.09458777      -0.08850229       0.00711612       0.05380912       0.03239384      -0.09263513       0.01172577      -0.06560529      -0.01013859      -0.05619622       0.21305670      -1.96930421      -0.71788715      -4.77409420
C        0.46226120      -1.03814125       1.92343831      -1.66992009       2.01314092      -0.30236745      -0.04878766      -0.10697609      -0.04073718       0.10945968       0.02083206      -0.14196885       0.21444421       0.03702160       0.24341984      -0.56089265      -1.68285570       1.98665682      -0.26495798      -5.11622921
C        0.35887074       0.49105132      -1.64361572       0.46716478       0.28955096       1.03941178      -0.03051516      -0.56890962      -0.17064754       0.05989541      -0.21961041      -0.34385179       0.23604269       0.10137309       0.21364218      -0.26043056       0.45693682       0.34414755       0.98819362      -5.19937904
H       -2.93474603      -3.01072550       1.23305392      -1.29238641       0.26321971      -0.05409645      -0.06943728      -0.07187325      -0.03408841       0.02191084      -0.11244813      -0.08826157       0.04122937       0.18192913       0.11751829      -0.17532836      -1.28618940       0.28781707      -0.02314547      -4.15413602
H       -3.77331138       1.10170984       0.35292578       0.08192087      -0.27446249       0.26067212      -0.06919793      -0.07926749       0.00830977       0.03077944       0.20212703      -0.01395883      -0.06473166      -0.06030502      -0.01931496      -0.06233920       0.07164450      -0.30285519       0.24151211      -4.24016814
H       -4.11705923      -1.50825191      -0.14364366      -0.90331185       1.18521595      -0.37926906      -0.16694435      -0.58977051      -0.12468882       0.13143283      -0.18013740      -0.23748812      -0.02811452      -0.05521591      -0.10872421      -0.60802687      -1.03833752       1.26685512      -0.37233665      -3.72903995
H        2.09714437       1.28053176       3.67052555       0.02872089       1.72495055       1.46003747      -0.18822919      -0.24932852      -0.04192684      -0.02674838      -0.02777959      -0.23827647       0.00102628      -0.04579014      -0.04811278      -0.23427542       0.01567727       1.65338724       1.39990127      -3.58152133
H        0.14049864      -1.46355784      -0.14472584      -0.05471104      -0.42018512      -0.29381835      -0.18201908      -0.34177074      -0.09118796      -0.15580007      -0.08402948      -0.29057119      -0.14184428      -0.12498507      -0.15167804      -0.24453108      -0.09454172      -0.43284775      -0.27757843      -3.71283501
H        1.08420563       2.19281912      -2.83623338       0.39348009      -2.12096667       1.90622902      -0.21911776      -0.16619277       0.04907241      -0.05214315      -0.02042878      -0.28057668       0.10126664       0.01113129       0.03082068      -0.28012181       0.41643168      -2.14382612       1.89647729      -3.46244901
H       -1.58545768       0.75235498       1.60614944      -0.15429658       0.39737853       0.50046688      -0.17272596      -0.52575263      -0.10102459       0.10907449      -0.14856707      -0.34802819       0.03312353       0.09722664       0.01917958      -0.33257294      -0.26275160       0.38298600       0.33767411      -3.76616983
H        3.24589443       3.27123642      -2.05528688      -0.01528454      -1.08907914      -1.08339345      -0.04252089       0.01589645      -0.02014016      -0.01519816      -0.02275783       0.10704508       0.04220528      -0.01111415       0.05324827       0.00094810      -0.00315397      -1.09005342      -1.07602691      -3.93776718
H        4.53506613       2.13275003      -2.07317924      -0.37344933      -0.23610866      -1.15596271      -0.04431695       0.10497048       0.02341467       0.00121400       0.01642035       0.01324959      -0.02514683       0.02885021      -0.02188704       0.01049572      -0.37100088      -0.22015513      -1.12863595      -3.94764951
H        3.51104307       2.37630272      -3.65303636       0.43818083       0.07887806       0.26884043      -0.05622581       0.00419524       0.02296506      -0.00272078       0.00854843      -0.01525468      -0.00746246      -0.02709746      -0.03104193       0.09551784       0.41902481       0.07016467       0.28849496      -4.04285163
H        3.48329639       0.80611467       1.42942834       0.08080008      -0.66160321       1.53644800      -0.04814556       0.02807562      -0.00828011      -0.02678659       0.07368969       0.00224866      -0.01611184      -0.13840946      -0.04562607      -0.03106305       0.08284641      -0.65078099       1.51791830      -3.99220042
H        4.10432768       0.23412740       3.16175628      -0.88093829      -0.17315696      -1.41959465      -0.05371250       0.09365712      -0.03048964      -0.02490349      -0.02418087      -0.03394587       0.00104856       0.10929452       0.00275432       0.04800564      -0.89544084      -0.18822286      -1.42962345      -3.99653926
H        3.16122055      -0.85735917       1.95692801       0.49048993       0.63478857       0.55613118      -0.05406319      -0.03356575       0.01600958       0.00078701      -0.04969989       0.04860563       0.02166231       0.00476593       0.03700770      -0.00082924       0.47715570       0.68992603       0.60234445      -3.97738002
H       -2.35685134       0.20290309      -3.72759628       0.50545579      -0.86748219       0.59805495      -0.05375350       0.06231364      -0.00229013       0.11829738      -0.01405301       0.03029234      -0.04353139       0.08564456      -0.01569943       0.10563093       0.51554534      -0.87498555       0.58368127      -4.02443732
H       -0.77989030      -0.79532319      -3.47177958      -1.33616042       0.56891805      -0.12465153      -0.05055172       0.07408939      -0.04180615      -0.03914570      -0.05197495       0.01736904      -0.02301591      -0.01834563       0.03431367       0.08303058      -1.30654046       0.54984860      -0.08514915      -3.91873443
H       -0.78609884      -1.80924451       3.55882835       0.32573655       0.06527112       0.83592683      -0.06215725       0.03010690       0.00989771       0.01060281      -0.00107704      -0.06464675       0.02495719      -0.00087737       0.00193901       0.06850167       0.32424880       0.04210163       0.86281636      -4.05435527
H       -0.77170479      -2.90953636       2.10028434       0.40405223       2.23352814       0.88673025      -0.04920383       0.04782922       0.02062320      -0.01248743       0.00096798       0.17347244       0.01447876      -0.00100268       0.04336830      -0.03078448       0.42232258       2.30580605       0.92557451      -3.91257455
H       -1.65478241       1.16042686      -1.40806985      -1.10447967       0.41740432       1.65566468      -0.05756480      -0.00647444      -0.00399672      -0.08783991      -0.05219017      -0.01478831       0.00188960      -0.06253267       0.03108317      -0.00766254      -1.20248768       0.42768571       1.67403533      -3.94122148
H       -0.91363525       1.63270962      -2.77078056       0.22656043       2.00833297      -1.59818316      -0.05552844      -0.01309739       0.00276582       0.02746670       0.01114772       0.08466541      -0.04615506       0.04077105      -0.05302849       0.09054144       0.19765863       1.96816751      -1.57193072      -3.82552156
H        1.28487802      -1.65984511       2.07594657       1.48064685      -1.07944846      -0.38738334      -0.06729373       0.01377273       0.00184879      -0.03567314      -0.01769316      -0.01861645      -0.00146642       0.01772302      -0.04008417       0.09327701       1.49155184      -1.10994104      -0.30524769      -3.97537400
H        0.65443552      -0.50302660      -1.83413792       0.04577580      -1.12736309      -0.64046890      -0.04445330      -0.00766016      -0.06240020       0.01048784      -0.03206454       0.09380937      -0.05266079      -0.01045717      -0.00464281       0.02620347       0.02410106      -1.15506258      -0.64695631      -3.91989848
51
Properties=species:S:1:pos:R:3:original_dataset_forces:R:3:LES_q:R:1:LES_BEC:R:9:forces:R:3:energies:R:1 original_dataset_energy=-222.87901306152344 energy=-222.8825927770698 stress="inf -inf inf -inf inf inf inf inf inf" pbc="F F F"
O        3.41359019       0.07294711       1.69809282      -0.01577152      -1.66962504      -0.38413942       0.20336321       0.75730492      -0.23454925       0.03186530       0.31014174       1.48676781       0.47447939       0.20357830       0.26294053       0.53334509      -0.06653493      -1.72167655      -0.41137877      -4.83674963
O       -1.70569682       2.16455007      -0.28512415      -0.73313838      -0.70970362       0.78205472       0.36858985       0.92393902       0.12244116      -0.14606616       0.18973843       0.82447520      -0.06806631      -0.28058977      -0.30694735       1.37846972      -0.70870411      -0.65790864       0.75669428      -4.48293177
O       -2.96213365      -2.10265970      -3.76360941       0.90065825      -0.42560303       1.56678689       0.27537006       0.61709165       0.19641161       0.52699841       0.23681667       0.66227038       0.12436205       0.29486448      -0.10671051       1.33281065       0.91338773      -0.42720539       1.58546066      -4.73195722
O        0.62683642      -2.12750816      -1.31814933       0.47610450       0.03952171       0.32559946       0.28329125       0.84751314      -0.30511979       0.13818417      -0.43901210       0.94420000       0.24284094      -0.00522918       0.32592631       0.71659423       0.43084999       0.05457148       0.34276196      -4.64327866
O       -0.07564378       3.08443260      -1.37125969       0.71117061       0.41696060      -1.58755493       0.37057161       1.27343517       0.62777739      -0.13778645       0.46944393       0.78616946      -0.07037819       0.20677326      -0.05573558       0.88740668       0.76831213       0.48771581      -1.48034804      -4.47205634
C        3.26240253      -1.07667351       1.18823457       0.87971812       2.11769605      -0.29508197      -0.09447211      -1.86115036      -0.05953883      -0.53628744      -0.39510174      -1.10848074      -0.58049325      -0.60042165      -0.44978175      -0.49668011       0.93210172       2.25146448      -0.21776344      -5.19021670
C       -1.15459645       2.46882534      -1.38086009       0.72972029       0.43942529       2.39460540      -0.07164118      -1.35280413      -0.92761587       0.36982292      -0.69995955      -0.62068764       0.16121915       0.18303894       0.35825934      -1.55366429       0.62455776       0.30290742       2.44436032      -5.09924058
C       -2.40876913      -1.93931079      -2.66903973      -1.35684538       0.79841536      -0.13889264      -0.08724068      -0.58211358      -0.49429304      -0.46435640      -0.48410291      -0.95683407       0.27810980      -0.47859198       0.24817056      -1.85043250      -1.40085794       0.77579944      -0.11662325      -5.25752728
C        0.15334573      -1.15832865      -0.72494459       1.08420908      -2.01851702      -0.12472399      -0.08589488      -1.11027455       0.58196505      -0.36204260       0.67916838      -1.04331712      -0.35630368      -0.25893435      -0.43558034      -0.79082033       1.04517589      -1.95877568      -0.09537690      -5.28544126
C        1.45562005       2.88826585       1.38464367      -1.56006563       1.41640437      -0.56196743      -0.08695122      -1.31159161       0.53106936       0.42278566       0.18817262      -1.47313020       0.36139768       0.34994810       0.48253285      -0.83424821      -1.74755469       1.55388108      -0.57845298      -5.47244071
N        0.49190482       3.80940819       1.20006442       1.26711965       1.23698509      -0.79881978       0.14737664       0.68664505      -0.03968860       0.04982472      -0.31210199       0.92497948      -0.04347370      -0.00447639       0.02440065       0.35245326       1.35476462       1.06385985      -0.80869407      -3.96074882
N       -2.57868004      -2.74280548      -1.55522704      -0.60461700      -0.55269748      -1.59470248       0.14076339       0.24667082       0.18108624      -0.07110871       0.14759440       0.62451260      -0.40590299       0.17685518      -0.17325969       0.92888397      -0.61407003      -0.52487964      -1.61389235      -4.54313908
N        1.32364404       1.91785133       2.21240807      -0.66604143      -0.64440137       2.04931855       0.10304809       0.50934949      -0.15214789      -0.21138729       0.17465909       1.07736431      -0.31439654      -0.21672616      -0.47527465       0.62624069      -0.48096092      -0.70030453       2.09941422      -4.50714677
N       -0.94684875      -0.58740360      -1.13494611      -1.60111153       2.56383657      -0.43472168       0.09463815       0.93504041      -0.42683004       0.24922161      -0.18687259       0.58272577       0.12579621       0.43272130      -0.05487704       0.53893920      -1.67423188       2.60747761      -0.54835019      -4.79278283
N        2.06754446      -1.46179056       0.72046733      -0.27086946       0.83882028       0.20888630       0.11152546       1.38699530       0.16190592       0.42076924      -0.02219320       0.40240317       0.11183452       0.21582663       0.22131166       0.39384340      -0.33216918       0.75069478       0.15828814      -4.70093552
N        2.62200928       2.85315490       0.79661715      -0.18241389       1.23639536       0.83877546       0.14495678       0.93860943      -0.08991531      -0.29684409      -0.05021065       0.46134535      -0.06329995      -0.43291903      -0.25848308       0.33773297      -0.10015931       1.10992690       0.80034255      -3.93121949
C        4.53487444      -1.99556506       1.01396799      -0.41022944       0.53232622       0.47806281       0.10656130       0.03071840      -0.07124686       0.00314421      -0.08012544      -0.02769606       0.00484408      -0.00974855       0.01861702      -0.13962444      -0.43272261       0.51436252       0.42245229      -4.50239365
C       -3.24485850      -4.11200953      -1.70394981       0.14011788       1.72978222       1.48988402       0.05276568      -0.27509323      -0.21819400      -0.03210533      -0.03575338      -0.29559728       0.08249672      -0.03947365      -0.01322897      -0.17784624       0.09878226       1.74722371       1.48306906      -4.65602433
C       -1.86440158       2.03208065      -2.60187721      -0.63248730       0.62272412      -1.43020225       0.06266508      -0.06379807       0.07983162       0.06251190       0.08715758      -0.13475096       0.12056866       0.10750709       0.03254029       0.15962601      -0.62605151       0.63483380      -1.41110344      -4.86641361
C        0.11970797       1.58952057       2.90411568       0.13368872      -1.70616579      -0.95237976       0.00130537      -0.40566315      -0.03157705       0.23520423      -0.09067352      -0.32241242       0.05000876       0.16960709       0.14372292      -0.24314091       0.04970844      -1.67065773      -0.96372775      -5.01207659
C        0.18160823       0.09126052       3.13078165       1.37993395      -0.14826244      -0.29927728       0.10182431      -0.11242273      -0.02414974      -0.17218538      -0.00080822      -0.13381005      -0.12262723      -0.00605220      -0.02118835      -0.00049248       1.38293694      -0.15782115      -0.27772129      -4.72307600
C       -2.56403303       0.68366551      -2.51515913      -1.99391496      -0.53912205      -0.75498378       0.09151106      -0.15677941       0.01384159      -0.03980773      -0.02521409      -0.12889841      -0.01430348      -0.00781044       0.06523860      -0.13154666      -1.97210942      -0.64494795      -0.71876384      -4.50322287
C       -0.07457563      -0.73081684       1.89685524       0.32231334      -0.93907970      -1.91269863       0.08399475      -0.07723138      -0.05770617       0.10102267      -0.01491197      -0.09770192       0.11206851      -0.02715227      -0.00099459      -0.12562509       0.34571517      -1.01146843      -2.01114907      -4.66924794
C       -1.61149681      -0.59842128      -2.48329711      -0.73951578      -0.99008542       1.32653308      -0.01933243      -0.29849502       0.13550419      -0.12579754       0.11541321      -0.15427648      -0.05800946      -0.08228995       0.08333016      -0.29262032      -0.61701000      -0.97794076       1.34911418      -4.99138923
C        0.82000196      -0.60723907       0.58042479       1.13289356      -0.26643202       0.38815531      -0.00540239      -0.47315663       0.14306522       0.02358134       0.13086764      -0.22331338       0.10328028       0.13473775       0.11859250      -0.07749804       1.21885714      -0.26391800       0.44364837      -4.83288356
H       -0.45425653       3.49509382       1.23640490      -0.61472052      -0.53551280       0.02036020      -0.16476491      -0.34550095      -0.10039316      -0.05770830      -0.02790049      -0.27210452      -0.04077724      -0.07593501      -0.08821872      -0.28563270      -0.54945806      -0.50234198      -0.07001343      -3.57761610
H        0.57389057       4.44809818       0.38570017       0.13454834      -1.17941427       0.71917892      -0.17665720      -0.17902433      -0.02969433      -0.05935257      -0.03197876      -0.43431854      -0.05500946      -0.04240089       0.05965825      -0.34022140       0.07189390      -1.11045066       0.74359961      -3.53014930
H       -2.03949499      -2.53091836      -0.71610522      -0.38827011      -0.24199839      -0.73238385      -0.18966860      -0.24237797      -0.01367286      -0.03566860      -0.04597363      -0.22061108      -0.05828272      -0.02670032      -0.00467742      -0.24040044      -0.36388017      -0.24422381      -0.73739045      -3.66555446
H        2.18803644       1.44673920       2.44111967      -0.37971213      -0.66007674       0.00236025      -0.17095515      -0.44906945       0.16106511      -0.02201916       0.18378726      -0.38628001      -0.00173551       0.14113403      -0.02685129      -0.16429538      -0.37223311      -0.60262861      -0.08353104      -3.61677196
H       -1.13256812       0.29501316      -0.67725331      -0.45536190       0.26515654       0.43558162      -0.16189793      -0.18651674       0.10228017       0.04563754       0.09477883      -0.49690084      -0.05276444       0.04827790      -0.13982107      -0.18761547      -0.42522778       0.22928211       0.45741532      -3.71184371
H        2.03823638      -2.26306939       0.12512296      -0.16476101      -0.51549125      -0.40176728      -0.17631255      -0.22240367       0.04598029      -0.05962868       0.00463484      -0.27055159      -0.05002140      -0.05016754      -0.02080770      -0.26121332      -0.14954591      -0.48612146      -0.35267650      -3.69920687
H        3.07587814       2.00770307       0.97243237       1.55591071      -1.28127313      -0.50625533      -0.15298489      -0.08266574       0.15932810       0.02446642       0.04529101      -0.50703293       0.06812826      -0.09404859       0.06716408      -0.22112933       1.56281013      -1.40012024      -0.43513293      -3.57471973
H        2.71096992       3.40382838       0.02399868       0.88547188       1.22973025      -2.46244979      -0.18352073      -0.31752522      -0.10467467      -0.01398374      -0.04146304      -0.24542095       0.02254949       0.13266222       0.16894558      -0.20729785       0.82104562       1.31888089      -2.47693443      -3.55280523
H        4.59859657      -2.54798865       0.03465331      -0.36924824       0.45964625       1.20920455      -0.05169993       0.03051394      -0.02991418      -0.00316956      -0.03641409       0.02515089       0.05865573      -0.05610150       0.08315121       0.05954839      -0.34023648       0.47254329       1.22927945      -4.03306687
H        4.51930809      -2.66597652       1.90635264       0.13217099       0.13627008      -0.95159298      -0.05151692       0.03888217      -0.03586280       0.01190024      -0.02796682       0.03707001      -0.05181413       0.04053024      -0.08155859       0.05854609       0.12520763       0.13050145      -0.95011692      -4.00275348
H        5.44832277      -1.34797025       1.12689650      -1.16166961      -0.55410343      -0.18559252      -0.04166098       0.25253322      -0.00257890       0.05318176      -0.00328219       0.03894839      -0.00945095       0.01502283       0.00780311      -0.01608813      -1.16611681      -0.57017010      -0.19629407      -3.96887360
H       -2.45624590      -4.82870007      -1.81736743       0.18842618      -0.50890332      -0.99090278      -0.05442093       0.01190006      -0.04287923      -0.01848920       0.01527791       0.08625503       0.03988221      -0.00128902       0.00532995      -0.03571636       0.20674120      -0.50677783      -0.98452331      -3.98572016
H       -4.07518721      -4.11100245      -2.46343803       1.27931523       0.06618115       0.82825875      -0.04485299       0.11237674       0.13063594       0.10158312       0.00004233      -0.01478233       0.01221113       0.10910916       0.09452489       0.03476036       1.29317042       0.05759831       0.83612035      -4.02356876
H       -3.60162449      -4.36249447      -0.68409872      -0.40529686       0.31564552      -0.68783361      -0.04921896       0.06147267       0.10927921       0.01458366       0.05243248       0.05559517      -0.00679417      -0.07083244      -0.08073344       0.03931096      -0.39305307       0.32376268      -0.69130513      -3.94685657
H       -2.55741906       2.87756157      -2.90593243       0.40028507      -1.14920163       0.58251357      -0.04771166       0.02989565      -0.02373533       0.02346459      -0.07920484       0.15880498      -0.08954910       0.04856940      -0.04254803       0.02987260       0.39125208      -1.16293793       0.56929365      -3.95249960
H       -1.18577337       1.99582231      -3.42401838       0.73572880       0.02969738      -0.58765429      -0.05723321       0.05602306      -0.00069649      -0.00734650       0.00986926       0.03190903      -0.00587621      -0.03861115       0.00430761       0.08080380       0.75760169       0.03944916      -0.60577594      -3.94922467
H        0.02137616       2.07584691       3.81066370      -0.02406216       1.19895041       1.90561938      -0.06756705       0.00056609      -0.00468721      -0.05181736      -0.00876203       0.01129107       0.01931894      -0.04624313       0.02849978       0.04241191      -0.03551524       1.23322805       1.88571768      -3.96439608
H       -0.71812505       1.84863436       2.29339933      -0.58337760       0.01922285      -0.45774332      -0.04386307       0.03032814      -0.06487575      -0.04921330      -0.03168064       0.01452647      -0.07441240       0.02575249      -0.01392672      -0.03154290      -0.62720568       0.00236935      -0.44651708      -3.94833392
H        1.21291506      -0.13997737       3.50562620      -0.97383350       0.04445224       0.04885348      -0.04587568       0.07810890      -0.01245838       0.14902120      -0.01543253       0.03556399       0.00840900       0.05407725      -0.00632873      -0.00207324      -0.97931693       0.07943730       0.02225382      -3.94207331
H       -0.55458391      -0.22725409       3.83787823      -0.25342575      -0.05543242       0.68393666      -0.06542029       0.01598536       0.02984932      -0.04150596       0.02674781       0.03252313      -0.00193285      -0.04293881      -0.02244346       0.04786635      -0.25414144      -0.08032558       0.69927472      -3.95181491
H       -3.34221911       0.69327438      -3.40150595       1.78903508      -0.77528220       1.67416883      -0.04516056       0.07228959       0.05805456       0.05515256       0.02655337       0.04211018      -0.00133871       0.05584608       0.01783949       0.03563386       1.77598375      -0.73075254       1.69055536      -3.94534554
H       -3.18186617       0.66292620      -1.57119226       0.67399675      -0.11950860      -0.98980552      -0.04388276       0.05912191      -0.03190851      -0.02837516      -0.01327829      -0.01969623       0.00234111      -0.12682384      -0.04012316       0.04570315       0.67807836      -0.10397333      -1.00652931      -3.96454091
H       -0.13501975      -1.79385078       2.16468143       0.60915756       0.14106148      -0.06631608      -0.05373910      -0.02883200       0.02576031      -0.01478927       0.00139253       0.12337883      -0.03957130       0.00229852      -0.00430258       0.02595126       0.60894697       0.15325432      -0.05634674      -3.94994236
H       -1.06820703      -0.58608383       1.54946387      -1.04375958       0.72533780      -0.21530539      -0.05430414       0.08489002       0.00809444       0.00291138      -0.00736576      -0.00458638       0.00148883       0.04154840       0.02793245      -0.01378657      -1.08119946       0.70559761      -0.21573729      -3.93512695
H       -0.86050355      -0.70622754      -3.25281572       0.22458076       0.67323142      -0.24895884      -0.06240419       0.04838704      -0.01328297      -0.02878360      -0.01180143       0.02406423       0.04480213      -0.01666834       0.00262710       0.04092387       0.20933505       0.65987299      -0.26628386      -4.06086435
H        1.09420681       0.44553730       0.28010273      -0.18032692      -1.11725116       0.79613537      -0.04794028      -0.00209749       0.03866041      -0.02921279       0.02956456       0.09878717       0.00549180      -0.05111048      -0.02896407      -0.00642579      -0.15694993      -1.04216783       0.80933783      -4.06551541
48
Properties=species:S:1:pos:R:3:original_dataset_forces:R:3:LES_q:R:1:LES_BEC:R:9:forces:R:3:energies:R:1 original_dataset_energy=-211.83709716796875 energy=-211.87657414703847 stress="inf -inf -inf -inf -inf inf -inf inf -inf" pbc="F F F"
O       -3.10494089       1.89972520       3.28242922      -0.00000088      -0.39828745      -0.12803109       0.29357690       1.23652780      -0.37507839      -0.03333565      -0.30551351       0.48480276       0.13861593       0.28407482       0.02784481       0.83031998       0.02501738      -0.40643973      -0.11352714      -4.66639335
O       -0.74430400       1.57437205      -2.22657681       0.82615632       0.64020663      -0.09888358       0.29117981       1.33588965       0.22172244      -0.52486475       0.32854570       0.83376811       0.08791299      -0.20063894       0.12718448       0.99852267       0.85706757       0.65829237      -0.07344614      -4.69853399
O        1.56287360      -0.97551268      -1.13194919       0.04187234       0.61973673       0.52313393       0.26334867       1.30308203       0.22572154      -0.07693202       0.54953765       0.94779694       0.08732923      -0.00820413       0.16053768       0.42061329       0.02269670       0.61679312       0.53742113      -4.78179135
O        1.36166406       0.30126345       1.99134874      -0.04232144       0.04197271       0.33808896       0.28612629       0.95980784      -0.19065820       0.43268642      -0.15577677       0.51535857      -0.31981285       0.14357220      -0.19856671       0.95568228      -0.06754357       0.07320072       0.34152451      -4.66805571
O        0.73334384       1.15213513      -3.84150672       0.10798680       0.23594198      -0.28086889       0.31824666       0.86546884       0.31104050      -0.31981665       0.09019208       0.81711523       0.39307727      -0.39345741       0.18925856       1.47547175       0.13976765       0.22850304      -0.28789284      -4.62411301
C       -2.07101703       1.61653996       3.87487841      -1.50859666       1.55551982       0.53601491      -0.07047980      -1.74393693       0.73335673       0.29531443       0.68848396      -0.46165457      -0.42444567       0.09167255      -0.35128590      -1.27770791      -1.56369005       1.58362195       0.53872370      -5.37030526
C        0.42897955       1.64581037      -2.74681854      -0.99741602      -1.08533788       0.60002935      -0.08312155      -1.63150342      -0.19584020       0.60373733      -0.08432963      -0.40207670      -0.61782634       0.47813481      -0.40794220      -1.76098377      -1.01817718      -1.06119155       0.56534043      -5.05931338
C        2.30779481      -0.01345974      -0.93142438      -1.61161852      -0.82821822      -0.31714958      -0.09252149      -1.99823001      -0.15179706       0.20373546      -0.25648086      -1.08862918      -0.20731008       0.15395296      -0.24751069      -0.23576961      -1.64198489      -0.86262142      -0.32648524      -5.36204105
C        0.40482464       0.76489997       1.37590361       0.95179981      -1.17205107       0.85290307      -0.08124284      -1.12612527       0.13877091      -0.25073648       0.18702611      -0.43886547       0.70952233       0.03033090       0.60028420      -1.44838273       0.97313702      -1.18583613       0.92769266      -5.32947688
C       -1.14618075      -1.73020899      -2.62646270      -0.04125700       0.05257404       0.06162532      -0.06962905      -0.57744811       0.01230614       0.62525769      -0.05750727      -1.83544210      -0.28238806       0.53241724      -0.10245753      -1.36484984       0.06531382      -0.00052309       0.09909357      -5.54899749
N       -0.49941587      -1.29798520      -3.66178465       0.70241749       1.78025818      -1.48514092       0.14616862       0.44368109       0.17517516      -0.37178163       0.17503878       0.61540917      -0.19698438      -0.35622603      -0.12096080       0.97732449       0.60464962       1.72755295      -1.45455078      -3.93894734
N        3.61289120      -0.12101966      -1.11867809       1.83537900       0.53972429      -0.35963029       0.10344335       1.35567054       0.02330893      -0.17018854      -0.32370868       0.49152147       0.12971707      -0.25811553       0.08446574       0.18871573       1.82776686       0.54585656      -0.37490978      -4.72060297
N       -1.76636696      -0.88083601      -1.84599090      -1.00567102      -0.19382299       1.32171881       0.11310310       0.46159321      -0.16585255      -0.32705555      -0.22666281       0.86694091       0.20928473      -0.18745565       0.22461827       0.90747586      -0.96908245      -0.19615703       1.36894522      -4.50362461
N        0.54152465       1.36108351       0.21177119       0.09662350       0.64281601      -1.82734048       0.11110773       0.58814002       0.09077495      -0.30039252      -0.06660988       0.42733899      -0.40446709      -0.11488456      -0.39152689       1.05500539       0.10048942       0.63290589      -1.85075688      -4.85491202
N       -1.02335596       1.06777537       3.28612041       2.21028209      -0.59094006       0.09505496       0.10589725       0.96719944      -0.36463186      -0.40266518      -0.35175699       0.49087675       0.33921684      -0.54437450       0.47343713       1.08391711       2.29160964      -0.61207041       0.08355337      -4.77930830
N       -1.15505886      -3.04442334      -2.48293018      -1.30373597       0.08581525       0.92755479       0.12132013       0.19960535       0.01704109      -0.11893699       0.11356273       1.18318550       0.07346040      -0.06889883       0.01231659       0.38771990      -1.27334478       0.01646503       0.98087526      -4.02103090
C       -1.90185070       1.97622585       5.34384060      -0.22000626       0.20260373      -0.09204791       0.10795309      -0.04166897      -0.02948519       0.01013891      -0.02105099      -0.09982413       0.05629182       0.03454702       0.04671425       0.13252283      -0.21303372       0.20328756      -0.10683736      -4.65448397
C        4.28287220      -1.41105723      -1.29763675       0.01703058       0.23169754       1.89697564       0.05970266      -0.19496840       0.13076881       0.01044099       0.19731088      -0.40723951      -0.05093545       0.17589085      -0.07323196      -0.19775320       0.02587774       0.22743135       1.88719769      -4.79617783
C       -2.35347319      -1.08090901      -0.49039143       0.40939349      -0.63847542      -0.84645903       0.00694039      -0.31531853      -0.01674831       0.08778106       0.00690353      -0.18816789       0.06079604       0.04641454       0.02048627      -0.42961941       0.36090644      -0.66037912      -0.91609354      -4.87746396
C       -1.32484746      -1.59294891       0.54845780      -0.56512022       0.50332910       0.36541593       0.09120695      -0.10699353       0.01772481       0.01271951      -0.00778032      -0.08471792       0.02554847      -0.10959080      -0.04403165      -0.11923700      -0.58391883       0.53738678       0.27590150      -4.70892506
C        1.55314970       2.18241835      -1.87034941       0.23096946       0.47744572      -0.12934645       0.06283106       0.07474866      -0.02073190       0.23858862       0.01655969      -0.07447506       0.09754147       0.04686164       0.02514777       0.10815099       0.22712645       0.46352264      -0.15469261      -4.81122157
C       -1.50123715      -0.88915831       1.91312838      -0.37694502       0.76055896      -1.39786756       0.10188008      -0.07088329       0.01952711       0.01290736       0.00855018      -0.17650675      -0.00635747       0.12998220       0.02066335      -0.14600874      -0.37168682       0.77226069      -1.35496409      -4.65680132
C        1.79145181       1.38824439      -0.57801139      -0.94510692       0.08361713       0.25658417      -0.02230872      -0.43672248      -0.10023816       0.20481567      -0.05811852      -0.11430318       0.13871542       0.23251622       0.09939842      -0.39584164      -0.92689967       0.12923344       0.33587385      -5.15457934
C       -0.99817288       0.60121024       1.91217971      -1.00021434      -0.78248513       0.42231014      -0.03346057      -0.04430415      -0.00450132       0.06432803       0.01618306      -0.32199033      -0.16992959       0.05376091      -0.17008227      -0.57876637      -0.99288797      -0.76267326       0.46926768      -5.13501081
H       -0.30289158      -0.29240543      -3.71271205       0.36129865       0.06806640      -0.48426411      -0.10738385      -0.31932468      -0.29751455       0.01643527      -0.25733119      -0.64967056       0.11729087       0.04212456       0.00013088      -0.18628903       0.34807081       0.09266505      -0.45614697      -3.76455156
H       -0.04570228      -1.88408029      -4.33992577      -0.12139665      -0.03987870       0.31131706      -0.18603952      -0.21307145       0.01272870       0.10029036       0.01497469      -0.22289052      -0.09850759       0.03517003      -0.03599896      -0.33952141      -0.08446992      -0.02759403       0.32729506      -3.55517181
H        4.19259405       0.72046757      -1.08818924      -0.45875961      -0.72819853       0.16600294      -0.21407473      -0.29753474      -0.05360298       0.03189602      -0.01982759      -0.22061791      -0.01319444      -0.02620398       0.00629260      -0.20521096      -0.47373824      -0.73599482       0.16898194      -3.56684727
H       -1.60010111       0.09197092      -2.05738187       0.41593087       0.71726441      -0.40932572      -0.11492735      -0.26940820      -0.24673415       0.09324233      -0.15999093      -0.67001689       0.14360944      -0.01415844       0.06093522      -0.19219643       0.42278656       0.80634548      -0.39626839      -3.85791878
H       -0.29078379       1.61572313      -0.31538442       0.23387678      -0.06796271      -0.20235157      -0.17840542      -0.21910011       0.06634953      -0.17104954       0.03711707      -0.15657500       0.00627523      -0.12323134      -0.01746784      -0.42882323       0.20343532      -0.09056213      -0.21008419      -3.71128650
H       -0.16750051       0.91273570       3.83801413      -0.77990633       0.01227407      -0.67939705      -0.20341133      -0.25088969       0.00290845      -0.03004717       0.00472497      -0.19637629       0.01358149      -0.00991171      -0.00200819      -0.29028792      -0.76846110       0.01734039      -0.68289711      -3.58951586
H       -0.47982404      -3.52567148      -3.00420380       0.63998604      -1.05133653      -0.10669395      -0.18445195      -0.20660136       0.05988089       0.02978293       0.03111109      -0.26916933      -0.00480697      -0.00106256      -0.10843457      -0.24261603       0.60876125      -1.00359055      -0.13241544      -3.53033338
H       -1.56627965      -3.35914016      -1.64419842      -0.01702881      -1.03025389       0.58616865      -0.18843038      -0.20219666      -0.03500048       0.00835065      -0.04278266      -0.26491142      -0.00444320       0.02182493       0.02014688      -0.23061069      -0.04679949      -1.00592248       0.56546088      -3.54774206
H       -1.07187235       2.67742705       5.48135233      -0.01020654      -0.33030412      -0.00001059      -0.04990083       0.04447701       0.05500511       0.02369534       0.04444015       0.03057035       0.04139322       0.01420698       0.01553474       0.00185953      -0.00573260      -0.33099191       0.00105241      -3.99517741
H       -2.81236553       2.47375846       5.70592213       0.32574871      -0.36704162      -0.25043702      -0.04355747       0.05323159      -0.03924862      -0.03990707      -0.03827500       0.01087107       0.03833518      -0.04161065       0.04260769       0.07937364       0.32171099      -0.37110027      -0.25030947      -3.96140593
H       -1.73203862       1.05566788       5.89505005       0.13498914       0.09621090       0.29129437      -0.05171334      -0.00913850      -0.02454922      -0.00345498      -0.01957660       0.05432619      -0.03943313       0.01651457      -0.03850845       0.02190870       0.13120799       0.09383326       0.29526031      -3.99403061
H        4.49972391      -1.80459392      -0.27573389      -0.42662805      -0.10202498      -0.71087718      -0.04562138       0.01095178      -0.03677380       0.00564196      -0.06647907       0.05302766      -0.00837032       0.03553290      -0.05084549       0.05295360      -0.42093015      -0.10798428      -0.72107497      -3.93277182
H        3.69522333      -2.12821651      -1.85026741      -0.12850666       0.15095723      -0.15118335      -0.04187072      -0.09340288       0.07779499       0.06514057      -0.00162707       0.03599090       0.01619675      -0.04849219       0.03836219       0.01289917      -0.15314366       0.14368619      -0.13835240      -4.00139696
H        5.25882053      -1.26477921      -1.70424819       0.40796262       0.20620568      -0.73901945      -0.05471235       0.09219056      -0.04487144      -0.04842006      -0.03740244       0.01749325       0.00869702      -0.07968141       0.02369336       0.00340837       0.41280663       0.21645541      -0.72734584      -3.97364389
H       -2.78014159      -0.10795072      -0.22371459       0.32538238      -0.24162810      -0.01234531      -0.05721071      -0.02112614      -0.06730198      -0.01509675      -0.02543904       0.06133623       0.03304505      -0.02594880       0.00735630       0.06065650       0.35989329      -0.25925541      -0.02301897      -3.96287910
H       -3.21616077      -1.75055575      -0.58123046       0.17002775       0.01905897       0.11985891      -0.06164456       0.05496766       0.02638880      -0.00826798       0.07520721       0.02299263      -0.00842214      -0.01931830      -0.01346939       0.03087269       0.16560536       0.01290978       0.12066518      -3.99850478
H       -0.31397808      -1.44427812       0.17094684      -0.04553531       0.09690314      -0.00687657      -0.02920069       0.05854812      -0.00700771      -0.00681776      -0.02781788      -0.01268427       0.01200187       0.03005179       0.02943952       0.03282398      -0.02025218       0.05390970      -0.07167597      -4.03041069
H       -1.43239272      -2.66001439       0.74514872      -0.13145712      -0.05179548      -0.26372892      -0.06166629      -0.01199971      -0.01638669       0.00729830      -0.01220593       0.11920982      -0.01049809       0.03039951       0.01387375       0.02161872      -0.11726925      -0.04494602      -0.27043676      -3.97170527
H        2.46636820       2.19407845      -2.45067501       0.17092143      -0.26037085      -0.13352947      -0.05127922       0.11616789       0.06791206      -0.09506208       0.03458097       0.01292326      -0.04542541      -0.04731866      -0.00259414       0.04818927       0.14705971      -0.25335069      -0.14575434      -3.95382391
H        1.39793849       3.22230482      -1.61786342      -0.40905288       0.22194484       0.23433501      -0.05308032       0.01256054      -0.00029350       0.00688498       0.01815200       0.13654382      -0.01903529       0.01341002       0.03821469       0.00590709      -0.40179206       0.22770052       0.22271623      -3.99233200
H       -0.96144831      -1.46677995       2.61685443       0.64903027      -0.23216684       0.91151094      -0.05779760       0.00383410      -0.03476507       0.05580470      -0.01287082       0.03867586      -0.02002999       0.04092084      -0.03283928       0.04212174       0.64099087      -0.19988615       0.89033078      -3.98595073
H       -2.56947875      -0.88718718       2.21964884       0.66436398       0.10318255      -0.17354323      -0.05052959       0.11393006       0.01742724      -0.06948097       0.01289834       0.01568881      -0.00041182      -0.07766547      -0.00369093       0.05019459       0.64704712       0.08583197      -0.18138886      -4.00053110
H        2.54084444       1.93223000      -0.01767856       0.21134882      -0.13242091       0.26660007      -0.05979010       0.05637345       0.00427977       0.00905060       0.00570342       0.02971750       0.00396554       0.02202328       0.00010735       0.06290638       0.20307577      -0.13808064       0.25520431      -4.01052874
H       -1.69969356       1.18510377       1.32092524       0.00496027       0.18013465       0.19741598      -0.05521126      -0.00674996       0.01169869       0.12834483      -0.01988184       0.04332329      -0.02838630       0.02014166       0.00440113       0.02133973      -0.01903937       0.15015927       0.16294842      -3.99547755
49
Properties=species:S:1:pos:R:3:original_dataset_forces:R:3:LES_q:R:1:LES_BEC:R:9:forces:R:3:energies:R:1 original_dataset_energy=-214.56011962890625 energy=-214.55959149137425 stress="inf inf -inf inf inf -inf -inf -inf inf" pbc="F F F"
O        1.16572297       0.81509274      -4.55985260       0.18035583      -0.83478367       0.12756306       0.29473597       0.42180866      -0.26531840      -0.02585397      -0.18096989       1.17601502      -0.42437200      -0.11653807      -0.11616833       0.90287749       0.18058473      -0.84531728       0.13432985      -4.66542573
O       -2.07996726       1.45465040       0.69610286      -0.86842912       0.76847696      -0.89977700       0.28211555       0.81771608       0.31156823      -0.02316612       0.15738069       1.08025271      -0.33860688       0.04999020      -0.24707874       1.32968241      -0.81440833       0.78665292      -0.87710312      -4.70493139
O       -1.37622070      -3.89421606       1.84498429       0.87473726       2.92313480      -0.05996052       0.30614126       0.52496283       0.14381282       0.22685433       0.35313635       1.31615106       0.02170147       0.08427892      -0.27933258       0.64198300       0.88043176       2.88537707      -0.09734771      -4.62507133
O        0.56028306      -2.56145859      -1.10280704      -0.33806416       0.90827519      -0.06693750       0.28409526       0.72273168      -0.26438153      -0.30659779      -0.41656460       1.18508921       0.18290646      -0.21763332      -0.02182759       0.56046694      -0.29936756       0.89291892      -0.08003221      -4.68461169
O       -1.10132444       0.90831870       2.57170224       0.25693977       0.43675172       0.99648988       0.31252614       1.20070200       0.16349264       0.54673517       0.22753318       1.03723509      -0.10921885       0.34765439      -0.09700949       0.94667901       0.23649986       0.49891777       0.98170839      -4.62935129
C        1.49596369      -0.35123420      -4.31918573      -0.24121967       1.55015302      -0.33243287      -0.07203491      -0.27644734       0.33140154       0.27341850       0.26465721      -1.34689935       0.60639993       0.38302389       0.40679921      -1.83713880      -0.25041049       1.55145385      -0.31327968      -5.35114629
C       -2.06986809       0.83474106       1.77830267       0.48863137      -1.80079019       0.29195359      -0.09736590      -1.20248229      -0.35260964      -0.54382690      -0.41321209      -0.80945884       0.66245207      -0.46251044       0.55909328      -1.63686359       0.44529551      -1.84979649       0.33644100      -4.99003008
C       -1.09382129      -2.67797971       1.62157321      -0.51579505      -3.49873233       0.69357872      -0.07955052      -0.65182788      -0.45229838      -0.62549773      -0.61776717      -1.63498764       0.02004384      -0.51593010       0.07604006      -0.91728376      -0.47729106      -3.41343175       0.73886464      -5.26843687
C        0.08184266      -1.42458224      -1.06117487       1.39409161      -1.30685079      -0.84425354      -0.08409531      -1.06223219       0.40916242       0.77264955       0.51083144      -1.31945961      -0.14039896       0.68033224       0.14097034      -0.63877767       1.34145684      -1.29920550      -0.82293138      -5.33663336
N       -0.26217431      -1.92442214       2.36850142      -0.21951734      -0.02620050       0.20485508       0.11642288       0.58584877       0.35653712       0.36764054       0.23469469       0.70741293       0.05103659       0.41736393       0.15799787       0.68949174      -0.25620229      -0.09331448       0.20797594      -4.70379123
N       -0.95253122      -1.09733033      -0.30356607      -1.32336450       0.52082771       0.73573613       0.10756899       0.89870083      -0.19834888      -0.49160343      -0.01901177       0.52452677      -0.12519821      -0.51298077      -0.00791055       0.68049017      -1.27492646       0.49661304       0.65024995      -4.83419868
N        1.34034383      -0.90238047      -3.10595608      -0.03963349      -1.32270098       0.88247645       0.12399177       0.33233633       0.01177102      -0.35775978       0.03258102       0.52160649      -0.23694385      -0.28569252      -0.28096344       1.57963632      -0.05133665      -1.32704032       0.86860871      -4.72061293
C        2.14500904      -1.24083841      -5.37103748      -0.39341635       0.34025955      -0.51929456       0.10220286      -0.07799718      -0.06573476      -0.06495340      -0.06801504       0.00086075       0.07810779      -0.07209039       0.06692863       0.03137209      -0.38509651       0.35190710      -0.51473212      -4.67550629
C        0.37872601      -2.38973832       3.61533666      -0.26586184      -0.64314789      -1.11322379       0.05886476      -0.23414165      -0.01591173      -0.09557220       0.03957954      -0.16497354       0.09477134      -0.17230617       0.09132747      -0.49415223      -0.28793846      -0.64817497      -1.11598416      -4.83025935
C       -3.12005568      -0.29861569       2.04257846       1.11825252       0.92804736       0.20642556       0.10014859       0.09976886       0.12247320      -0.04822821       0.20644379       0.07583764      -0.09180286       0.05489039      -0.03918412      -0.11576324       1.15921029       1.02094617       0.20041950      -4.74444747
C        1.18407547       1.77663255      -0.59925783       0.25915986       0.17147961       0.46545407       0.07943409      -0.09524111      -0.01917966      -0.00198787      -0.00649737      -0.07870934       0.02412721      -0.02111960       0.02740477      -0.09597273       0.20185877       0.12537915       0.43990834      -4.79557108
C        1.87855470       2.56343675       0.51661259       0.70491904       0.07571124      -0.79965621       0.09656388      -0.05264441      -0.07297626      -0.07092095      -0.03040345      -0.16444838       0.02187934      -0.04101533       0.01279713      -0.10266591       0.67511853       0.06387665      -0.81004122      -4.65077826
C       -3.11580324      -1.36026514       0.94042528       0.16350795       0.70572084      -0.31059939       0.09596554      -0.13422647       0.06706352       0.06474206       0.03391874      -0.06914970      -0.02425776       0.04141033      -0.05591141      -0.14047957       0.18514942       0.65807855      -0.31288321      -4.70958831
C        1.80608881       0.48519939      -1.10899329      -0.50094575      -0.05258708       0.96190441       0.09440289      -0.08743935       0.04277462      -0.02128118       0.02830005      -0.06595877       0.00856367      -0.01364311       0.02662328      -0.11818047      -0.53829977      -0.01266153       0.97979837      -4.70712438
C        1.01718700       3.74091029       1.02019799       0.43809405      -0.47399500      -1.52735507       0.00776338      -0.47333164       0.02893773       0.15708000      -0.02700888      -0.17527166       0.04889592       0.12366237      -0.01038153      -0.22013377       0.39435674      -0.48977130      -1.53947558      -4.82097176
C       -1.81137633      -2.03570437       0.44929349       0.47463116       0.64768052       0.31156516      -0.02330286      -0.36357249      -0.10090453       0.21596859      -0.09069552      -0.19138285       0.03674479       0.18573071       0.02346806      -0.24002925       0.47976440       0.64664107       0.29540535      -5.13574467
C        0.72523272      -0.28392470      -1.90942848       0.50171566      -0.44660354      -1.04400361      -0.01646076      -0.24955877       0.05013831       0.00888760       0.02462092      -0.07622490      -0.16908805       0.07892603      -0.17534713      -0.52537351       0.50249876      -0.47598162      -1.01731230      -5.06102562
N       -0.28740704       3.27557015       1.55842841       0.53731006       1.87282920       1.04995191       0.00345126       0.43695164       0.18999742      -0.06948259       0.07753608       0.52968937       0.09404346      -0.09489874      -0.02954182       0.17198167       0.59255953       1.87875743       1.06362917      -4.29821813
H       -0.26963216      -0.93397427       2.16428447       0.11750624      -0.08982134       0.27759069      -0.17306477      -0.20504654       0.07660487       0.01120010       0.10053463      -0.47131234      -0.05221201       0.04400841      -0.02086665      -0.17984471       0.11028098      -0.09187358       0.22971042      -3.77555474
H       -1.29080820      -0.15987808      -0.34664854      -0.20266543       0.58610034      -0.07029140      -0.18054947      -0.21612660       0.11203181       0.02321096       0.12431958      -0.38651996      -0.13660371       0.01131521      -0.10962114      -0.25265580      -0.19128220       0.59617554      -0.03745652      -3.71819801
H        1.67721379      -1.85657763      -3.00431585      -0.38670450       0.33930463       0.32356885      -0.19514221      -0.24466295       0.03761384       0.05544544      -0.00236993      -0.25396308       0.04056708       0.05755777      -0.01917473      -0.28278946      -0.36542241       0.32476989       0.31200118      -3.61082214
H        2.11267185      -0.70492542      -6.34516907       0.15324728      -0.42779526       0.82384688      -0.04339898       0.00131431      -0.01700726      -0.04763105      -0.02879111       0.02600981       0.02263233      -0.02713562      -0.01958603       0.12813285       0.14933745      -0.42625765       0.82035187      -3.96488744
H        3.16588593      -1.48322463      -5.08801460       0.10868601       0.12901205      -0.06126593      -0.05170809       0.08002101      -0.03531355       0.00660783      -0.01811433      -0.01319466      -0.04294040       0.01772844       0.00445421       0.00294584       0.11034810       0.12619938      -0.06092546      -3.99745422
H        1.61207974      -2.18793797      -5.46847248      -0.03841906       0.08987653       0.02271054      -0.05013316      -0.00657590       0.04187165       0.02548359       0.04958783       0.07185294      -0.00878141      -0.01151418       0.02066504       0.00791448      -0.04059416       0.08368202       0.02390468      -3.98849349
H        1.35152400      -2.82503915       3.36219764      -0.18832868       0.03178574       0.26321334      -0.05104758       0.05610003      -0.07614454       0.06012542      -0.04824072      -0.01129670      -0.01567708      -0.00701374      -0.03503414       0.04243921      -0.19295139       0.04314727       0.26190154      -3.97799182
H        0.50243044      -1.59612918       4.32389927       0.05541435       0.66212481       0.03491725      -0.05398128      -0.01908476       0.01408415       0.00755536       0.02304599       0.00475776       0.06196993       0.03644169      -0.00517413       0.10528948       0.06062799       0.65705871       0.02210726      -3.99215369
H       -0.23978764      -3.14500451       4.09705639       0.01912794      -0.08341540      -0.25999922      -0.03971177      -0.00203826       0.04694394      -0.06127079       0.00313020       0.03424006      -0.07354694      -0.00105264      -0.03875928       0.01224498       0.01234182      -0.08242980      -0.26729127      -3.97839223
H       -2.97475982      -0.73648334       3.03900576       0.34420103       0.15881915      -0.39929917      -0.05144318       0.00860620       0.00886889       0.00403468      -0.02835534       0.02036487      -0.01449877      -0.05098120      -0.03232832       0.16741158       0.33306230       0.15057312      -0.38804434      -4.00249644
H       -4.10026455       0.14875966       2.07174730      -0.40084052       0.14977165      -0.19318186      -0.05569957       0.09753785      -0.04647432      -0.02096523      -0.02853916       0.02491789       0.02762191      -0.08912889       0.01651577       0.04854887      -0.39447192       0.17175506      -0.17358221      -3.98679329
H        1.02134478       2.40903330      -1.45375884       0.11443904       0.48524001      -0.43847233      -0.05819530      -0.04534363      -0.06369325       0.04992528      -0.01813504       0.03172013      -0.02797086       0.03161622      -0.02623469       0.04944072       0.13998391       0.52327746      -0.44919671      -3.91906914
H        0.20345938       1.56166506      -0.27002636      -1.12953091      -0.49450904       0.49532104      -0.03333689       0.03054509       0.02621960      -0.00128558       0.03987219       0.05239880      -0.01502779      -0.00052011      -0.00066016      -0.01382549      -1.12280935      -0.48387989       0.50880828      -3.91344004
H        2.15206337       1.90670133       1.35668325      -0.07138882       0.21392530      -0.28509426      -0.05949818      -0.03026287      -0.03278230       0.04139565      -0.04847926       0.04734807      -0.03417510       0.04941850      -0.02228238       0.07386394      -0.06529989       0.23369771      -0.27334441      -3.99927718
H        2.82161713       2.97481275       0.05557224      -0.79788131      -0.20559284       0.88789570      -0.05802231       0.12106825       0.02299440      -0.04045652       0.02215319       0.02192215       0.01960478      -0.05289709       0.02474451       0.02304115      -0.76600391      -0.20672905       0.88417671      -3.95364051
H       -3.58147621      -0.92756867       0.06802249      -0.16582948       0.13109276      -0.33869496      -0.05318017      -0.01213820      -0.02940400       0.03246071      -0.08050311       0.00019909      -0.02424451       0.06782215       0.00028117       0.06190183      -0.19953374       0.12350065      -0.34254634      -3.95499916
H       -3.80169201      -2.07822800       1.33028769      -0.17990954      -1.05103815      -0.16896960      -0.06040880      -0.00727305      -0.01287094      -0.02275296       0.01496741       0.04030871       0.02227165      -0.06216640       0.00491576       0.03151901      -0.19182018      -1.04548442      -0.17230413      -3.94456698
H        2.22818279      -0.13106328      -0.28737402      -0.40736559       0.25153017      -0.45098731      -0.05453232       0.01116728      -0.03706201       0.05668100      -0.05553164       0.03861925      -0.03636844       0.03478134      -0.05014808       0.06516976      -0.41449699       0.25355420      -0.46323808      -4.01250947
H        2.61490154       0.73160356      -1.75979245       0.52390832       0.00769120      -0.52364552      -0.05607414       0.05354811       0.00637414      -0.02007830       0.01499245       0.01789882       0.02282911      -0.07177724       0.01678344       0.04622875       0.52333380       0.00254014      -0.53230058      -3.96923445
H        1.56366765       4.24074697       1.79090285       0.03019043       0.50078976       0.46253195      -0.06532490       0.01958048       0.01438216       0.01315003       0.00860377       0.00088345       0.03703847       0.02785054       0.11194573       0.03684498       0.03148281       0.49962620       0.47612697      -3.98103860
H        0.83117485       4.42710018       0.15918165      -0.02098977      -0.43359739       0.87431419      -0.05903570      -0.00643922      -0.06692385      -0.01947233      -0.01892709       0.00248384      -0.05259639      -0.01522456      -0.08890831       0.02555295      -0.04387767      -0.45249468       0.88095441      -3.95724562
H       -2.09641504      -2.83353519      -0.22327197       0.08627906      -0.23382822       0.07215361      -0.05740144       0.03845118       0.03152205      -0.01243899       0.00681290       0.02745249       0.04206442       0.05046771       0.09661835       0.00948636       0.10750342      -0.24028831       0.09983199      -3.98446125
H       -0.04176986       0.40074962      -2.30732799       0.33739206      -0.14990579       0.37849936      -0.05145569       0.06629897      -0.03287739       0.02476628      -0.05978640       0.07507076       0.07656584       0.05051956      -0.03092205       0.02445430       0.35851006      -0.13491767       0.41577050      -3.99132289
H       -0.87811768       2.77275896       0.92670929      -1.11694348      -0.97349483      -1.40428662      -0.12123424      -0.38520540      -0.17876078      -0.03746803      -0.21231712      -0.48049217      -0.06226245      -0.06154807      -0.00171947      -0.17130327      -1.09404402      -0.96288791      -1.41842331      -3.46472430
H       -0.24019527       2.56761742       2.29026389       0.20587219      -0.77976823       0.50119227      -0.14400017      -0.24982421      -0.22318160      -0.03117532      -0.16433694      -0.49125332       0.07331130       0.01835861       0.01162426      -0.30103059       0.18617947      -0.75979246       0.49535243      -3.42616780
H       -0.85177898       4.04615164       1.93557906       0.32422066      -0.25990254      -0.23569196      -0.20312577      -0.23460210      -0.00848258       0.01570856       0.08333912      -0.48816913      -0.14135741       0.03216874      -0.03592202      -0.21282802       0.32010816      -0.30534635      -0.24856138      -3.30971057
48
Properties=species:S:1:pos:R:3:original_dataset_forces:R:3:LES_q:R:1:LES_BEC:R:9:forces:R:3:energies:R:1 original_dataset_energy=-208.8418731689453 energy=-208.86592364980288 stress="inf inf inf inf -inf inf inf inf -inf" pbc="F F F"
O       -1.59408140      -1.30093789       3.00472760       0.53419191       0.64138252       0.24017140       0.25393537       0.52739939      -0.06709148      -0.33321658      -0.21916662       1.18501171       0.26901868      -0.30421480      -0.14878580       1.01501875       0.58258229       0.69942993       0.26062195      -4.77950067
O        1.28061306       1.87640989       1.99111843       0.79109019      -1.40936685       1.27394378       0.29729596       0.99921681       0.27616025      -0.36608695       0.00346356       1.24408661      -0.13140802      -0.17939473      -0.33187068       0.96078995       0.73781164      -1.38435715       1.39564048      -4.53745001
O        0.98878992       0.63859737      -1.94493723       0.97305149       0.95143700      -0.96354938       0.25167066       1.53274109       0.17891136      -0.39790762       0.21195898       0.45819296      -0.16492956      -0.17674967      -0.07396612       0.78569659       0.90271948       0.95854851      -0.93473050      -4.72804197
O        1.72341657      -2.22580838      -0.60843968       0.14531162       0.49831638       0.37651631       0.29702362       0.73461101      -0.21769339      -0.21157661      -0.17721415       1.10070131       0.30951087      -0.23504142       0.48967081       0.60101774       0.10603892       0.61035834       0.45099400      -4.63847916
O        1.26858902       3.64819789       0.84832644       1.57830024       2.57007098      -1.16764927       0.32041445       1.11784644      -0.23713941       0.19290915       0.02316925       1.60130305      -0.22680381      -0.05804664      -0.23159300       0.63977648       1.69618585       2.56542636      -1.09607098      -4.46980801
C       -1.26098514      -2.40912294       2.62289381      -1.67869508      -0.00421027      -0.35589546      -0.09857044      -0.58584518      -0.01497225       0.79963701       0.19666201      -1.26974495      -0.33140663       0.79608714       0.00029488      -1.55014420      -1.66532433      -0.06889033      -0.47844586      -5.30811556
C        1.85134363       2.60152364       1.13291180      -2.98048854      -1.84852529       0.36083162      -0.09911168      -0.83190865       0.35136428       0.46657693       0.06888702      -2.02300219       0.47443585       0.56640777       0.72547059      -0.96980620      -2.92785276      -1.81172164       0.21643487      -4.83797683
C        2.20878243       0.78483379      -1.79177284      -2.32856464      -1.37508762      -0.00079307      -0.07114932      -1.67412598      -0.30805109       0.58932309      -0.27839515      -0.24086773       0.34510134       0.38216415       0.32454578      -1.36788666      -2.10071217      -1.44747057      -0.03386991      -5.26921547
C        1.20098734      -1.34817100       0.08952577      -1.41204548      -4.04981995      -2.13215017      -0.08572257      -0.90582150      -0.07725039       0.32597882      -0.17789420      -1.63038229      -0.51497847       0.32489236      -0.64401283      -0.46690161      -1.46385947      -3.93923500      -2.10409278      -5.21596145
C       -1.49822414       1.78924692       0.22423436      -2.04652071      -3.71172237       1.77079701      -0.07759977      -0.77475880      -0.71596927       0.03738900      -0.64141334      -1.02331165      -0.05810546      -0.00498144      -0.10892239      -1.53106318      -1.88803986      -3.52456483       1.55238232      -5.36506905
N       -0.72832519       2.59926295      -0.34828141       1.70562780       3.02962041      -3.67452431       0.11731684       0.58201817       0.44662103      -0.23040267       0.44850576       0.70644124      -0.15628442      -0.13014488      -0.22109238       0.52226842       1.49495357       2.87402196      -3.77481923      -3.90568839
N        3.07008576       1.05079389      -2.79355574      -0.77030808       1.12963331      -1.10070264       0.09952363       0.70631602       0.12455832      -0.31147524       0.13209962       0.22566052      -0.23058393      -0.53618331      -0.23322511       0.94132754      -0.77358935       1.12497682      -1.01866874      -4.70141580
N       -2.24803257       0.83271456      -0.43645728      -1.16650081       0.73947722       6.22842884       0.12077545       0.43932988       0.47359747       0.13837598       0.21789880       0.79381302       0.18195009       0.30116774       0.19855442       0.61684628      -1.10513456       0.67038020       6.24525878      -4.32064142
N        1.68826818      -0.17577425       0.32839656      -1.00634694       2.45571041       3.30709887       0.08076622       0.62331958       0.49970581      -0.09434191       0.32267573       1.15545121       0.19090685      -0.03008000       0.11803972       0.45505837      -1.05758046       2.15737110       3.16455127      -4.70790940
N       -0.65678209      -2.63373065       1.43520653       1.52365792      -1.17214668      -0.00756080       0.11282632       0.47421115       0.15534313      -0.47735655       0.04472583       0.56690192      -0.13860512      -0.51887475      -0.21092584       1.31755549       1.54744394      -1.24355980       0.11654891      -4.71397311
N       -1.40830112       1.91979325       1.54866791      -0.51167923      -0.35720789       1.88959455       0.19768663       0.46216884       0.10933970       0.04030135       0.24140638       0.16979630      -0.07366878      -0.04576110       0.22412057       1.16761437      -0.57575828      -0.33196383       1.96735527      -3.70737525
C       -1.80897629      -3.62682748       3.29563332      -0.21853302      -1.87442613       0.01874109       0.10264327      -0.03740742       0.13094776      -0.10619679      -0.00204318       0.02977565       0.00480879      -0.06206073      -0.11512560      -0.02062426      -0.21516822      -1.90028386       0.03548127      -4.64205969
C        2.67237496       1.62591231      -4.10861349      -0.71158314      -1.91399860       1.70706558       0.05083774      -0.20364902       0.00787031       0.05782374       0.03531001      -0.19872473       0.15409264       0.01430108       0.14305982      -0.50221683      -0.79759141      -1.91400013       1.73081843      -4.72790375
C       -3.09994245      -0.25719047       0.18939500       0.60841680       0.65746379      -2.46122050       0.01287585      -0.24486441      -0.14704270       0.06000238      -0.07865437      -0.41776464       0.04941366       0.04521057       0.07004600      -0.23592540       0.48221204       0.66842859      -2.53902101      -4.75596126
C       -2.83037353      -1.62114644      -0.53887755       1.21985853       0.54171330       1.87509692       0.08255127      -0.03840364       0.05426379       0.01347188      -0.07700173      -0.14383165      -0.02471309      -0.03015460      -0.01996526      -0.15021946       1.16532384       0.66520288       1.90435777      -4.71293685
C        2.89855528       1.95845854       0.22942694       1.02114367       1.07068098       0.54219788       0.05784023      -0.12671366      -0.20371212      -0.13305386      -0.11101698       0.01438421       0.06905085      -0.10319053       0.05366183       0.07752272       1.04995554       1.10217237       0.45797537      -4.67461651
C       -1.32155418      -1.83496952      -0.74758267       2.34036922       3.05787969      -0.35941538       0.10402866      -0.09455865      -0.02774870       0.01829155      -0.03200658      -0.09192639       0.03608624      -0.04466245      -0.05468692      -0.13625478       2.46098739       2.97857012      -0.31926543      -4.38014426
C        2.71282578       0.52600682      -0.35502943       0.34381494       1.02006888      -0.56938440      -0.02092994      -0.32702442      -0.19102466       0.08967491      -0.19161103      -0.36490119       0.01811618       0.26637881       0.13098325      -0.13319917       0.32312515       1.17144755      -0.52313555      -5.12776459
C       -0.28813687      -1.60526240       0.51767528      -1.93786252       0.76442665      -0.99268156       0.01163729      -0.05142999      -0.16224140       0.01636850      -0.11745739      -0.38634113       0.26562157       0.08532843       0.38770174      -0.50287779      -2.06560572       0.82231438      -1.00960348      -4.86149021
H       -0.36791080       2.54150581      -1.28442800      -0.29224321      -0.41375551      -0.06222571      -0.17654654      -0.20099487      -0.02547130       0.05350716       0.09512815      -0.35610124       0.00596042       0.00960353       0.04511592      -0.28041898      -0.31041729      -0.47024669      -0.03517362      -3.61123356
H       -0.35059917       3.36098433       0.20131193       0.62843728      -0.15399060       0.05027670      -0.12490755      -0.61967843      -0.23406029      -0.21913888      -0.15089338      -0.26380531      -0.07624626      -0.21879280      -0.12366570      -0.27165177       0.70344314      -0.01782119       0.08043569      -3.61215112
H        3.98954272       1.25445795      -2.55809021       1.68262279       0.20353928       0.78676355      -0.20822735      -0.33280041      -0.04453318       0.04007012      -0.00242745      -0.19661179      -0.01273171       0.00737702       0.00524203      -0.17726333       1.66566660       0.20666707       0.78587593      -3.57424649
H       -2.11239123       0.72098064      -1.34173393       0.91423565      -0.17434224      -4.88171911      -0.19648999      -0.22384104      -0.01398924       0.00927159       0.05982365      -0.23199869       0.01153153      -0.14260859      -0.02253528      -0.30603599       0.98544145      -0.20268515      -4.75191344      -3.56305215
H        1.15178359       0.38285366       1.08678424       1.53179049      -0.43188438      -1.41105282      -0.15076889      -0.15274903       0.05832794      -0.02019212       0.06070878      -0.42254933      -0.27698905       0.06509743      -0.32017905      -0.33739597       1.51186082      -0.47259389      -1.42295905      -3.71523871
H       -0.51982903      -3.56779718       1.08656895      -0.04499712      -0.11804562       0.46208224      -0.21079886      -0.23061906      -0.05007460       0.01838326       0.01718404      -0.27907502      -0.01373605       0.00423618       0.03901637      -0.22853943      -0.06404820      -0.10762325       0.44127744      -3.58928337
H       -0.49073040       2.36067486       1.91417289      -1.30210137      -1.16044474      -0.53985417      -0.13658357      -0.71379353      -0.02875914      -0.02949968       0.00958231      -0.23168499      -0.02318049      -0.04134569      -0.01993053      -0.15890197      -1.31892688      -1.14261339      -0.44259536      -3.64320749
H       -1.90524340       1.29960549       2.19610167       0.45496461       0.42728150      -0.65266806      -0.18561460      -0.18751016      -0.03693787       0.01417162      -0.07274890      -0.19151200       0.11558115       0.13811969      -0.06266241      -0.30207448       0.48538553       0.33295920      -0.66039763      -3.60621092
H       -2.70084119      -3.51249552       3.89960527      -0.11096068       0.86789632      -0.18169485      -0.04271998       0.08280512       0.03271059      -0.09504355       0.02757842       0.03958420      -0.04161521      -0.07921042      -0.03392545       0.06312854      -0.09525638       0.88125311      -0.19465208      -3.95475267
H       -1.14148724      -4.12914419       3.97436953       0.77223349       0.08936715       0.17965184      -0.05024917       0.02101836      -0.01557205       0.03690964      -0.01212589       0.05558803      -0.08463370       0.03181549      -0.05830196       0.05313033       0.77612611       0.08788084       0.16523753      -3.96291966
H       -2.06396532      -4.40895557       2.56591558       0.13967243       0.29241338      -0.01203606      -0.04167362      -0.00860645       0.02850455       0.00993736       0.04075446       0.09173455       0.03582737      -0.01183057       0.00545400       0.06961166       0.14057251       0.30588798      -0.00032034      -3.92557317
H        2.20511460       2.56762409      -4.11986399       0.05661039       1.51766169       0.45106849      -0.05411173      -0.03291885      -0.06718170       0.04689977       0.04197025       0.07878271      -0.11864169       0.02155918      -0.00642727      -0.01400252       0.04459258       1.53176709       0.43376165      -3.97888831
H        1.91768837       0.97986269      -4.41725349      -1.67676115      -1.09502816      -0.61432379      -0.03606641       0.06233679       0.02176101       0.05924218       0.02522817       0.02101353       0.01535238       0.02846432      -0.01866245       0.04402966      -1.69050766      -1.08739735      -0.62454317      -3.84304817
H        3.37310266       1.46675146      -4.86946964       1.64531314       0.25981477      -0.54058272      -0.05403278       0.04519249       0.02611784      -0.09433394      -0.06773038      -0.04627248       0.06263477      -0.06946167      -0.04940969       0.12954024       1.68453962       0.24656713      -0.54529163      -3.94151253
H       -4.14489079       0.00195014       0.19923465      -0.55359066       0.27334151      -0.97144634      -0.05910870       0.05758040       0.01117003      -0.03134441      -0.01175673       0.04878512      -0.00598700      -0.00542576       0.00579563      -0.01465971      -0.54504743       0.25879033      -0.93517489      -3.95409559
H       -2.96051145      -0.23060235       1.20918715       1.29294765      -0.64910787       2.18846011      -0.04575633      -0.07503024       0.05464398      -0.00567760       0.03926690       0.05450609       0.06588807      -0.03861117       0.04056015       0.05353664       1.25311033      -0.68576770       2.11502099      -3.96507199
H       -3.17097473      -2.43468857       0.14711760      -0.31091180       0.61228484      -0.91283101      -0.06139749       0.04986530       0.02588157      -0.01494714       0.04795187       0.10142197      -0.02720545      -0.07455502      -0.06553005       0.01426701      -0.30247822       0.55409279      -0.88193790      -4.00728441
H       -3.27271771      -1.61258948      -1.53893077      -0.33449200      -0.30433044       0.44907472      -0.06253425       0.03115922      -0.01274295       0.02962303       0.00320054       0.00126717       0.01624491       0.09840781       0.04080008       0.08513239      -0.34166090      -0.30520101       0.42435937      -3.99968981
H        2.83465481       2.63600087      -0.57617265       0.24724893       0.68697888      -1.22614551      -0.04752426      -0.01023969      -0.01560821       0.01247803      -0.03670208       0.00323513      -0.04057643      -0.04260355      -0.03994805       0.02309330       0.24048126       0.72899286      -1.18698071      -3.82514899
H        3.88949513       2.18610597       0.64054126      -0.14484568      -0.66501141       0.13017602      -0.05716570       0.17215410       0.06749767       0.05201714       0.07752056       0.03183454       0.04162862       0.01540494       0.02867030      -0.00386796      -0.16207607      -0.68891218       0.13971614      -4.00855586
H       -1.10322261      -2.74381495      -1.19957554       0.18016148      -2.22611427      -0.17129610      -0.05752813       0.00285681      -0.07899658      -0.02886245       0.00832958       0.10634116       0.03590843       0.00496413       0.05571775       0.01317505       0.18542303      -2.26719741      -0.18526450      -3.95279407
H       -0.94198197      -1.20408797      -1.60905540      -0.47088602      -0.03870325       1.16617560      -0.03326879      -0.02532000      -0.04411292      -0.05231235      -0.00482674      -0.01168560      -0.04914184       0.02255551      -0.05698101       0.10971683      -0.47189451      -0.00817884       1.12403495      -3.94442755
H        3.67147183       0.02557734      -0.45962703      -0.00533337      -0.32224509       0.51956266      -0.06407984       0.03286519      -0.01484967      -0.03601653       0.00010944       0.05993887       0.02182189      -0.10319719      -0.00688216       0.01700827      -0.05690789      -0.34622325       0.50999399      -4.05546340
H       -0.60647196      -0.75356877       1.06869614      -0.31431162       1.11140144      -0.01104168      -0.04056601      -0.04639915      -0.08247183       0.06034823      -0.03801380       0.07654214       0.02567901       0.05764021       0.14669135      -0.11393101      -0.23054464       1.16500093      -0.01920654      -3.95443636
45
Properties=species:S:1:pos:R:3:original_dataset_forces:R:3:LES_q:R:1:LES_BEC:R:9:forces:R:3:energies:R:1 original_dataset_energy=-202.7589569091797 energy=-202.73246200421244 stress="inf inf -inf inf inf inf -inf inf inf" pbc="F F F"
O        2.16118860      -1.11790490       1.01673436       1.17507470       0.06963338      -0.13044795       0.20745282       0.54688173       0.30079811      -0.09288046       0.49173247       1.32315947       0.30036480       0.22580011       0.28592370       0.54434028       1.10907554       0.08847654      -0.04280524      -4.73251574
O       -3.67390800      -1.33386695      -1.09213364      -0.96997559      -0.44321293       0.10811735       0.29864940       1.22501132      -0.28810953      -0.17389183      -0.12241553       0.97992546       0.05730263      -0.18430068      -0.14308879       0.45638026      -1.08631401      -0.36092470       0.12154943      -4.67438958
O        2.54407072       3.39287138      -0.52753538      -1.27834427      -0.28921068       0.48668334       0.29998031       0.81586870       0.28954812      -0.07649574       0.00786314       1.14616427      -0.43388753       0.01893398      -0.48627766       0.57511561      -1.28420867      -0.30216260       0.52587342      -4.60523129
O       -1.13410676       0.60694659       1.76950979      -0.13807704      -2.04752636      -0.41620213       0.28976011       0.71578528      -0.11266666      -0.34262533      -0.30293720       0.75831304       0.30819565      -0.33586015      -0.00690795       0.93095823      -0.12624316      -2.02143605      -0.38760594      -4.64910027
O       -1.62186623      -1.13821352      -1.84610486       1.03394449      -0.18946068      -0.72797036       0.34807739       1.08739412       0.15447933      -0.34240481       0.38683211       1.06002885      -0.30755436      -0.31853529      -0.24034605       0.76500675       1.03310353      -0.15820927      -0.70804263      -4.62042482
C        1.84371543      -2.12235689       0.39294809       1.24296570      -0.20795818      -0.43608093      -0.10471381      -1.66582550      -0.16574515       0.04609096      -0.44043553      -0.98366395      -0.55634261      -0.00823288      -0.50387688      -0.55631130       1.20883438      -0.22514780      -0.57802981      -5.29317562
C       -2.50781822      -1.78321242      -1.27108955       0.23623092       1.29102695       0.73574317      -0.06162896      -1.67545039       0.22337186       0.57977393      -0.13643271      -1.26990665       0.46414591       0.58889675       0.72553387      -0.55490744       0.31865910       1.24826808       0.73849162      -5.10039914
C        2.13293338       2.36738849       0.04544401       1.29673314       1.78406799      -2.40721130      -0.10127361      -1.31784205      -0.04574117      -0.10463574       0.17788703      -1.32275970       0.70190134      -0.09550153       0.73890377      -0.49581425       1.25389130       1.82905206      -2.47824904      -5.24756734
C       -0.55551541      -0.06409397       0.88964087       0.12963101       2.21314216       1.51718163      -0.12004471      -0.65073839       0.02404209       0.66151561      -0.05031563      -1.09042241       0.14194478       0.71172929       0.17414226      -1.23002042       0.10660345       2.34482752       1.46052196      -5.04156335
C       -2.16243267       1.69704020      -1.57651138       0.61808914      -0.01196950       0.61131835       0.02355334      -0.04206252      -0.01769962       0.00219324       0.03770322      -0.09495151      -0.12115889       0.25325452      -0.03151224      -0.10491822       0.53869539      -0.06807270       0.57420639      -5.22592623
C       -1.68143952       2.64993858      -0.70834982       0.38362545      -0.96068150      -1.82691884      -0.03384177      -0.13295249      -0.22377589       0.19020933      -0.17875065      -0.06656586       0.03356726      -0.01244064      -0.12317143      -0.13892242       0.41348446      -0.89126158      -1.64330778      -5.35318443
C       -3.51937795       1.78898275       0.16347563       0.63729709       0.47097135       0.72882652      -0.13542704      -0.05098232      -0.16964857      -0.13292295      -0.03806896      -0.49713763      -0.18002381      -0.06045596      -0.21852351      -0.35297017       0.71750357       0.39888729       0.72177063      -5.54634236
N       -3.34153152       1.20947146      -0.99700713       1.21006787       0.64481568       0.15321176       0.02449395       0.01233488       0.25166644       0.03347699      -0.02148512       0.45352846       0.09534888      -0.11571524       0.23568338       0.26336749       1.22117733       0.54977910       0.15357569      -5.14456963
N        3.04048014       1.54124188       0.55491775      -2.26036859      -1.50858378       0.79471368       0.13452616       1.05600521      -0.27347878       0.28714248      -0.14157996       0.74445721      -0.27698503       0.09753855      -0.33001058       0.32849202      -2.21390154      -1.51607675       0.78265951      -4.64572174
N        0.13434255       0.67344397      -0.00146252       1.62089276       0.34763771      -0.81340778       0.13587677       0.60819890       0.03763367      -0.30904068       0.28456649       0.90665066      -0.44135847      -0.27579516      -0.16029371       0.72944081       1.67909370       0.27686729      -0.83315169      -4.54320667
N        0.56942391      -2.46983743       0.45590073      -0.59799260      -0.53030872      -1.75399983       0.10316678       1.42053352      -0.01427669      -0.04261599       0.11519775       0.48028710       0.09555239      -0.21260886      -0.00038485       0.26430937      -0.52016394      -0.57146624      -1.89198787      -4.77074960
N       -2.58477283       2.75823426       0.32394058       0.40933388      -0.25755739       0.47743937      -0.00182950       0.01269190       0.30725218      -0.00295877       0.16853174       0.28746094       0.22573831       0.01199808       0.14503833       0.25654171       0.40097104      -0.29832109       0.29475220      -5.13190026
C        2.82592654      -2.96196699      -0.48978779      -1.99160886      -2.00217509       0.07499837       0.10311538      -0.02008287      -0.01328569      -0.06857832      -0.07795944      -0.10044303       0.08064720      -0.03971652       0.04181941      -0.04746661      -2.01073905      -2.02991733       0.05070391      -4.53933044
C        4.45818043       1.71119392       0.54219300       0.31433803       0.96521896      -0.32477289       0.06457774      -0.53224872       0.00114567      -0.03082232      -0.19067430      -0.17832118      -0.01799338      -0.00654986       0.01078094      -0.15287220       0.28430908       0.96581939      -0.34390124      -4.81035934
C       -2.10662866      -2.97985506      -0.43757111      -2.39508033      -0.06832653       0.18842755       0.08603065       0.00485391      -0.06602707       0.05812840      -0.03398157       0.10419801      -0.17580989       0.05104955      -0.27422351      -0.00517101      -2.44980087      -0.07160330       0.21302294      -4.74411061
C       -0.23247319       3.06990194      -0.74707437      -0.99428934       0.48254910       2.43124771       0.03111727       0.04855606       0.01892930      -0.01566147       0.03602849      -0.27910368       0.04496968      -0.01269110       0.10182163      -0.16431802      -0.95662521       0.44868184       2.35020635      -4.98749058
C       -1.75442469      -2.50429630       0.98033994       0.59838116       4.28626728      -2.10482335       0.11868264      -0.10377574       0.00767882      -0.04712244      -0.05822376      -0.13413860      -0.08609567       0.01062653      -0.03232571      -0.12025454       0.49504459       4.26166939      -2.09744297      -4.40454404
C        0.59063244       2.12342954       0.14972627       0.19811723      -1.42293859       2.08293366      -0.00892416      -0.14762114      -0.10079597      -0.09087884      -0.04664564      -0.58113722       0.06873636      -0.06943296       0.08742824      -0.24662927       0.11392030      -1.52596082       2.18880884      -4.86646944
C       -0.41805029      -1.61331213       1.03255796      -1.81264925      -1.85721707       2.40597701      -0.00792170      -0.46629985      -0.07777158       0.17552564       0.11066529      -0.33461250      -0.01931300       0.08917651      -0.19606348      -0.18874783      -1.91492739      -2.08393478       2.47419893      -4.84088198
H       -1.51725173       1.16428185      -2.32322454      -1.62329352       0.60346270       0.63099122      -0.05863554      -0.06772112       0.04291074      -0.05101262      -0.04927544      -0.12373053      -0.00434314      -0.04949350       0.09871665      -0.05824925      -1.58901561       0.61001651       0.68351691      -4.15825599
H       -4.03199863       1.27737081       0.96944028      -0.48696131       0.77403045      -0.21638733      -0.06262698      -0.05254097       0.01235923      -0.02093744      -0.00439067      -0.05065134      -0.00958018       0.02363505      -0.01582182      -0.04331160      -0.45445348       0.72121915      -0.19097728      -4.22024738
H       -3.71238160       0.24137108      -1.08061850       0.06381663      -1.26695430      -1.00599480      -0.10521209      -0.28200013      -0.06717629      -0.04522154      -0.04500482      -0.60232141      -0.06614884      -0.08316807      -0.01320427      -0.16508270       0.07269167      -1.07284746      -0.97328943      -3.93804638
H        2.67437577       0.63125288       0.80528277       0.32123184      -0.13882612       0.26696023      -0.12954980      -0.24042782      -0.23786655       0.01210607      -0.11712462      -0.63795923       0.06878716      -0.05306532       0.06611066      -0.16870144       0.32171287      -0.12909632       0.27560846      -3.86218975
H        0.47030795       0.15198128      -0.78966165       0.32091850       0.15024740      -0.27598634      -0.19630009      -0.21565210       0.01039423      -0.00763650      -0.00321840      -0.13886833      -0.04977992      -0.01637420      -0.06463123      -0.24752683       0.38733705       0.17454364      -0.32639718      -3.70012220
H        0.19935858      -3.33693433       0.08643621       0.55517799       0.46174815      -0.28914133      -0.20917128      -0.10546105       0.08164755      -0.00914386      -0.04565263      -0.26231342       0.01645124      -0.03169849       0.01114422      -0.21879892       0.61904640       0.45782337      -0.15710012      -3.54521764
H       -2.35530949       3.27561116       1.17371511      -0.49947366      -0.60481417      -0.40758514      -0.21636890      -0.27059140       0.03896399      -0.01297269       0.03087213      -0.33592837      -0.05910662      -0.02114892      -0.06201998      -0.30814301      -0.50996414      -0.56853765      -0.38852517      -3.65318679
H        2.62892866      -4.11321878      -0.41624326       0.08715905       2.11071301       0.03619358      -0.03779385       0.01947730      -0.00697318      -0.01116685       0.00095931       0.17219255      -0.00294938      -0.01307534       0.00615058      -0.00495777       0.10231976       2.14723887       0.05477096      -3.92991195
H        3.82619739      -2.82457066      -0.18995690       1.02765286       0.43760613       0.45610571      -0.05180807       0.11467363      -0.01826951       0.00866485      -0.01375203       0.00638349       0.00978918      -0.02412207       0.05123279      -0.00905491       1.01297011       0.46537150       0.45419732      -4.00304077
H        2.73942518      -2.73922873      -1.56685364      -0.18200971       0.22358964       0.58890831      -0.05123843       0.01383625      -0.05570432      -0.00787806      -0.00587084      -0.01638741      -0.01015756      -0.02877083       0.00818078       0.09573032      -0.15845615       0.23023243       0.62037906      -4.01040284
H        4.85855007       1.30947733      -0.39882377       0.26910850      -0.25590253       0.51638281      -0.05121948       0.05078106       0.00538919      -0.01799980      -0.02446976      -0.02147212       0.01933918      -0.07100268       0.03838037       0.03452414       0.25839345      -0.26980376       0.50645468      -3.98235086
H        4.81624699       1.23147261       1.46612048       0.36489052       0.19160047      -0.71504951      -0.05338978       0.09700245       0.01961913       0.02559708       0.02378821       0.00942308      -0.02760226       0.08888645      -0.03026823       0.03590176       0.38045511       0.19609556      -0.69653558      -3.98228635
H        4.70913219       2.79316473       0.50508708      -0.24767053      -0.74633974       0.34860930      -0.03510578       0.01936745       0.03430054      -0.01660402       0.14023418       0.06623816       0.02127598       0.00331007       0.01337026      -0.02047537      -0.23925176      -0.72569569       0.36176424      -3.95549372
H       -1.39189482      -3.64014125      -0.93143958       0.14409961       0.26213998       0.22785011      -0.05464529       0.04543444      -0.04538131      -0.04947582      -0.02555494       0.14098533       0.05040421      -0.00127235       0.09790322       0.03525729       0.17963685       0.31715402       0.31629362      -3.99681678
H       -3.03766108      -3.55470991      -0.25940114       0.54084575      -0.01981235      -0.39256462      -0.05003476       0.10650647       0.11686637       0.01759917       0.14108459       0.14656912       0.01947114      -0.02903062      -0.02541128       0.01184071       0.54200717      -0.00366348      -0.43459280      -3.89631372
H       -0.12933069       4.04584599      -0.28505814       0.20279618       0.31068707      -0.35353875      -0.05626578      -0.00311584       0.05828691       0.01283262       0.02266588       0.07865482       0.02017861       0.02298407      -0.01497736      -0.00064107       0.15319288       0.34323193      -0.34975200      -3.98450047
H        0.12131381       3.11011291      -1.73527336       0.43463939      -0.01730688      -1.16018188      -0.06151215      -0.00990853       0.03956571      -0.05651148       0.00669045       0.02239473      -0.03100545      -0.02148649      -0.07032639       0.08359647       0.46765655      -0.03430657      -1.17233825      -4.02141297
H       -1.70002127      -3.38585186       1.45957565       1.08532572      -2.67028928       2.50953150      -0.06681848      -0.03794936       0.01126282       0.00071129       0.07363453       0.17028194      -0.06325909       0.00455256      -0.03324031       0.01964678       1.16167276      -2.58225562       2.47055774      -3.86378686
H       -2.48861074      -1.88356364       1.52259326      -0.19629619      -0.44905999      -0.89169323      -0.04804693       0.04752835      -0.06168169      -0.00875982      -0.04624765       0.00842282       0.08229433      -0.00930922       0.07633745       0.02332258      -0.20521939      -0.46708801      -0.91536431      -3.99950797
H        0.51127696       2.44255757       1.26123333      -0.77010030      -0.91257995      -1.74116659      -0.05413181      -0.01104365       0.01712568       0.02766902      -0.01655670      -0.03661933       0.01587915       0.02343576       0.00719489       0.09021140      -0.77121837      -0.90604347      -1.75490293      -3.93451642
H       -0.19720381      -1.69745278       2.10437226      -0.08420599       0.79305190       0.01364049      -0.05162914       0.03357095      -0.04316247       0.04961954      -0.01991251       0.09369588      -0.00183030      -0.02495291       0.05510985       0.06028253      -0.06295663       0.80857754      -0.02958555      -3.88656754
45
Properties=species:S:1:pos:R:3:original_dataset_forces:R:3:LES_q:R:1:LES_BEC:R:9:forces:R:3:energies:R:1 original_dataset_energy=-202.99118041992188 energy=-203.05881592293744 stress="inf inf -inf inf inf -inf -inf -inf -inf" pbc="F F F"
O       -2.77096987      -1.95703590      -3.46989870       1.38037777      -0.59160078      -1.98155737       0.28983876       0.84913616      -0.21460377      -0.24939032      -0.07311227       0.55802949       0.44312579       0.08770994       0.36541474       1.13198936       1.38709268      -0.60279490      -2.01553573      -4.61154855
O        1.44801378      -0.16465127      -2.12177992      -0.72084385      -0.10264543       0.26129907       0.27667925       0.90613063       0.08806913       0.07642210      -0.20205412       1.38471597      -0.09061920       0.16292759       0.02526966       0.84708384      -0.70927432      -0.21653082       0.26089867      -4.68783579
O        1.10449886       1.46846116       3.32507634       0.61218715       1.00837719      -0.03766428       0.25221038       0.98997423       0.47268179       0.34056505       0.30523615       0.55549814      -0.08804287       0.45013981       0.17301634       1.02100100       0.74757721       1.02939672       0.08601443      -4.76241839
O       -2.33580065       0.51528358       0.68477178       1.44155753      -1.32521713      -1.41545773       0.22424492       1.25209093       0.03918132      -0.07774191      -0.16281366       0.48308927       0.16869809      -0.27771451       0.12831374       0.91239012       1.41036867      -1.31315909      -1.48109177      -4.72654321
O        2.64730859      -1.60873365      -1.00260210      -0.82641870      -0.87729627      -0.35342196       0.37261096       1.35226778      -0.27448091       0.40340559      -0.01407182       0.96525232      -0.02835688       0.51997446      -0.28772207       0.65934523      -0.87629709      -0.89526966      -0.37736936      -4.49874477
C       -3.41404843      -1.40772653      -2.62065053      -3.33935237      -1.61492729      -3.46674299      -0.06063407      -1.11965901       0.18656055      -0.12472582       0.07436663      -0.40186670      -0.65001679      -0.42550560      -0.70740171      -1.83419556      -3.30435589      -1.61908670      -3.40607103      -5.32946391
C        1.61732316      -1.36645389      -1.67117655       0.48760417       1.06073391       0.68414152      -0.08618991      -1.33141883       0.07983857      -0.63938242       0.15102026      -1.60247197       0.38030242      -0.73981344       0.51527357      -0.59617559       0.52943623       1.17267633       0.64206026      -4.99825878
C        0.22549492       1.20619881       2.53738809      -0.14692083      -1.53045487      -0.60695565      -0.10801233      -1.23313713      -0.75182522      -0.33124080      -0.70999134      -0.74653563       0.22288404      -0.34694866       0.07069094      -1.12924638      -0.35667215      -1.54127803      -0.94480484      -5.16856925
C       -1.36271369       0.15783352      -0.04018396      -1.42302394       1.51464117      -0.17471534      -0.10990009      -1.62857200      -0.32777405       0.29741580      -0.20877971      -0.60745985      -0.43899140       0.48727411      -0.40923495      -0.72409075      -1.37592018       1.58691917      -0.14527390      -5.06371165
C        3.78230929       2.27995634       1.39826512      -1.28132176       1.62692654      -0.15943360       0.00480979      -0.38793302      -0.21811944      -0.18407327       0.21728690      -0.01550162      -0.04589417       0.07420824      -0.14493660      -0.11246547      -1.29682308       1.58539286      -0.20283216      -5.37367002
C        2.71801925       2.13046050       0.57798207      -0.96017003      -0.10113388      -0.02490238      -0.03686429      -0.35308696       0.22898559       0.10196820       0.09087238      -0.10980545      -0.09737898      -0.12287607      -0.03929805      -0.15894830      -0.93821209      -0.11919225      -0.16155304      -5.58412082
C        4.38519478       0.95519543      -0.21492893      -3.33789301      -3.28993082      -3.24107099      -0.12550044      -0.84016274      -0.22342948      -0.24356773      -0.08283602      -0.21214479      -0.09449357      -0.36864542      -0.10477569      -0.28329425      -3.32744519      -3.23389514      -3.25947954      -5.52393581
N        4.81015015       1.58709884       0.82282889       3.31118464      -1.09805024       3.74358273      -0.00610275       0.74896801       0.15084219       0.29319286      -0.04194378       0.07773866       0.12669172       0.26493155       0.08736986       0.21093955       3.36584020      -1.24334253       3.74833004      -5.00720117
N       -0.72342825       0.24434572       2.86683202       0.19976169       1.13283908      -3.57558179       0.17487377       0.68925338       0.31841659       0.08599286       0.48523050       0.65133069      -0.28157746      -0.12181597      -0.24373415       0.76574785       0.33307055       1.14208880      -3.51234558      -4.51973000
N       -0.17029263       0.79872274       0.02071327       1.00482631       0.42112988      -0.72110176       0.13060977       1.05845433       0.29213967      -0.13289276       0.46961361       0.56953980       0.14593934      -0.05945035       0.18012839       0.56152164       0.92194823       0.40935474      -0.72486829      -4.65282208
N       -2.96189713      -1.13725924      -1.47279096       4.05117273       3.18632412       5.86368847       0.09550631       0.53249841       0.04277855       0.45705428       0.12505430       0.34789829       0.29690746       0.41798193       0.39534282       1.16087206       3.93158933       3.23936302       5.77454577      -4.70514467
N        3.08559418       1.25383115      -0.40231058       1.05179727       0.14488295       0.39822960       0.01326063       0.88676741       0.13527953       0.19132746       0.05356297       0.25189825       0.13989246       0.37490179       0.21999733       0.30105529       1.06482322       0.21083848       0.57449205      -5.15054589
C       -4.90982342      -1.16332364      -2.75377584      -0.75928682      -0.73026466       0.01754968       0.11518894       0.17099945      -0.06774203       0.00233773      -0.09570005      -0.08927505       0.00248525      -0.05293108       0.00520466      -0.10393717      -0.73504909      -0.68958629       0.01535989      -4.57451268
C       -0.73831570      -0.49959144       4.06461239      -1.55908370       1.13725781       2.30941057       0.07045935      -0.10351065       0.03402602      -0.12395402       0.01624379      -0.24738426       0.11392806       0.09609250       0.17589558      -0.46773014      -1.60175047       1.14621765       2.30745074      -4.75501517
C        0.47276601      -2.40708017      -1.87112606       0.56705338      -0.02446145       0.73017710       0.07791937       0.07782840       0.25043469       0.13067562       0.12492936       0.15371266       0.03885282       0.04775567       0.01726328      -0.09575161       0.51633864      -0.04686757       0.76729832      -4.75481228
C        1.36284673       2.75424743       0.62071764      -0.59399748       0.37040824      -0.47559094       0.03716692      -0.15550393      -0.07001767       0.02783289      -0.05878862      -0.25109596       0.05071632       0.00591390       0.03180794      -0.19296717      -0.58550811       0.35226639      -0.44989336      -4.96673885
C       -0.77391684      -2.18774939      -0.95071375       0.68301570      -1.32292962      -1.56072295       0.09286181      -0.07647549      -0.01255218      -0.02430856      -0.00216307      -0.16807418      -0.04781320       0.01245711       0.02987078      -0.07100950       0.68147621      -1.35425547      -1.56450763      -4.69242913
C        0.16496268       1.88601398       1.02141678      -1.94649792      -1.96290255       1.25958467      -0.01014779      -0.17954649      -0.02621106       0.01893422      -0.16765319      -0.27218660      -0.11325389      -0.02322458      -0.17845090      -0.20440710      -2.03613471      -1.96906674       1.47795013      -4.87078249
C       -1.48334754      -0.89273965      -1.20499992      -1.90299785      -0.00095236       0.77025211      -0.01444585      -0.58482756      -0.05873913      -0.21882544      -0.03570232      -0.19926914       0.06963202      -0.17801358       0.03923566      -0.13670833      -1.88168838      -0.06282179       0.79241553      -4.96597571
H        3.81085420       3.02299619       2.17274141       0.60068208      -0.37857503       0.33551246      -0.07275790       0.08518471       0.06256723       0.06260067      -0.03681779      -0.05176553       0.02594072       0.02762148       0.03716388      -0.04733157       0.59474444      -0.37063649       0.25447380      -4.19268888
H        4.65853882       0.02724802      -0.76637530       0.79134738       1.04045308       0.76072228      -0.05314540      -0.03470427      -0.03640551       0.00117774       0.08591936      -0.03432387       0.00685420      -0.00871345       0.01343026      -0.02889775       0.80222094       1.13110882       0.77089897      -4.20697897
H        5.52954578       1.09716690       1.44212270      -0.93346244       1.50357378      -1.50856841      -0.22016992      -0.56452866      -0.01729646      -0.10065096      -0.04177265      -0.28531504       0.00267075      -0.16788821       0.00104920      -0.29758888      -0.94328200       1.51112227      -1.46042385      -3.54071287
H       -1.42025995      -0.00643373       2.12976909       0.79888922       0.67553627       1.30315888      -0.14067818      -0.32669502       0.04003245      -0.25662523       0.00726346      -0.17353451       0.11053495      -0.15880153       0.05162470      -0.57943220       0.85705315       0.71313701       1.32533483      -3.80061834
H        0.45280430       0.66559279      -0.84199840      -0.80926800      -0.14317177       1.37561643      -0.14837809      -0.44049719       0.12908152       0.27974674       0.15331757      -0.23333194      -0.16006487       0.27031533      -0.12276633      -0.46909152      -0.77349940      -0.11175852       1.41045086      -3.84221160
H       -3.46495152      -0.52675164      -0.85394758      -0.53413212      -0.07979774       0.11097362      -0.18175116      -0.22070672       0.01500345       0.02393600      -0.06782419      -0.23446973      -0.06453336      -0.02791741      -0.07666713      -0.25672469      -0.45229575      -0.08191350       0.15854238      -3.62425992
H        2.42799449       0.66567099      -0.98076785       0.29811233       0.02080663      -0.98836637      -0.13081276      -0.49614176      -0.21767119      -0.24285524      -0.38585145      -0.49910326      -0.17080895      -0.20988136      -0.19296058      -0.41661927       0.18249653       0.05033692      -0.95265229      -3.90508525
H       -5.50411415      -2.00850344      -3.13792253       0.86160165      -0.03574054      -0.03999614      -0.04226939       0.08303894       0.06175912       0.05095848       0.11531829       0.06137245       0.06732980       0.03628907       0.03236201       0.00089895       0.88171085      -0.04924365      -0.04372415      -3.96321167
H       -5.14522266      -0.36114508      -3.43849301       0.13701972       0.48659000       0.16999352      -0.05145419       0.00617669      -0.02870100       0.01610834      -0.05241011       0.02782094      -0.06065789       0.03741297      -0.05338334       0.02358711       0.11811653       0.47689455       0.17436210      -4.00298097
H       -5.30081987      -1.02791691      -1.75493050      -0.35997581       0.64028442       0.07555125      -0.04551253       0.13147886       0.00475874       0.00898545      -0.00119295      -0.01331215       0.01849579       0.02407721       0.03777524       0.11193365      -0.36413309       0.63820785       0.06549492      -3.91427378
H        0.06659842      -0.19810057       4.72241211       0.36862993      -0.04642719      -0.18697415      -0.03277037       0.00683457      -0.03482521       0.10572914       0.00200377      -0.03995440       0.06876689       0.01448072       0.00707736       0.06722491       0.36655613      -0.03134292      -0.19292493      -3.95987914
H       -0.71196139      -1.57968581       3.93243861      -0.21419904       0.11744392      -0.11190513      -0.05651663      -0.04574869      -0.01115006       0.03054182      -0.00477668       0.07932184      -0.00711623      -0.00415458      -0.00530430       0.01260736      -0.22870652       0.11391862      -0.10786156      -4.01978282
H       -1.67501104      -0.12454212       4.63550854       1.21370578      -1.29468632      -0.64157534      -0.04269229       0.05873472      -0.01449539      -0.04602762      -0.04190912      -0.00390297      -0.01661477      -0.07068024      -0.01999129       0.11036238       1.21741670      -1.31378407      -0.63714129      -3.88825836
H        0.91467178      -3.35364938      -1.57414079      -0.05464964      -0.14777142      -0.11319357      -0.05288306       0.05231194      -0.04900910      -0.02142138      -0.02824711       0.11970867       0.00825939      -0.01524859      -0.00030206       0.01188374      -0.04299271      -0.17132128      -0.11827709      -3.95331526
H        0.17222485      -2.46983290      -2.89655375      -0.11641233       0.18093434      -0.61154491      -0.05481161      -0.00543787      -0.00214171       0.02049649       0.00424851      -0.00071315       0.03309017      -0.00948313       0.02504939       0.10480851      -0.10530359       0.18117463      -0.62984608      -4.03341415
H        1.38468170       3.57646489       1.30697680       0.15280147       0.21076895       0.74879092      -0.06069963       0.03168143       0.00133634      -0.00954564      -0.00892284       0.00908350       0.02751058       0.00626377       0.06247679       0.02170146       0.15466792       0.18570163       0.71965117      -3.96075987
H        1.14062130       3.30924749      -0.32887679       0.15692225      -0.98926193       0.48954526      -0.05309048       0.05828174       0.00355380       0.01737063       0.00981737       0.06087727      -0.05694971      -0.00407998      -0.11538525       0.06158647       0.17748067      -0.99055718       0.49828808      -3.97275053
H       -1.47459483      -3.06771302      -1.02905500       0.82897598       1.08155036       0.05919079      -0.04596514       0.10432669       0.05111936      -0.04489239       0.04835088       0.07594918      -0.02367165      -0.01246703       0.06243481       0.01936749       0.88165747       1.05761344       0.08211138      -3.97247971
H       -0.31774706      -2.16855502      -0.01994586       0.32134029      -0.20039994       2.23183846      -0.06315152      -0.01770631       0.00711559       0.06476043      -0.00028529      -0.03874631      -0.01871806       0.02538669      -0.03436527       0.01781952       0.31771441      -0.19505518       2.20235391      -3.93489061
H       -0.73223269       2.52643704       1.16754913       0.53022891      -0.22048230      -0.62835330      -0.05790491       0.06070720      -0.05221934      -0.04230830       0.00170315       0.03791180       0.00008784      -0.00830620      -0.00087363       0.03665299       0.55080366      -0.26516970      -0.63640826      -4.02608467
H       -0.99154735      -0.44329947      -2.03017735      -0.03022844       0.54967940      -1.07109082      -0.04650361      -0.04712640       0.01384812       0.00489322      -0.01573910       0.06079481      -0.01402295      -0.02955486      -0.05298567       0.03423264      -0.05685675       0.55419957      -1.08389249      -3.97543768
49
Properties=species:S:1:pos:R:3:original_dataset_forces:R:3:LES_q:R:1:LES_BEC:R:9:forces:R:3:energies:R:1 original_dataset_energy=-214.66151428222656 energy=-214.63555093206915 stress="-inf -inf -inf -inf -inf inf -inf inf -inf" pbc="F F F"
O       -1.90581250       1.58373070       2.64116049       1.34471023       0.62505496       0.00332045       0.28635511       0.98629680       0.45870999       0.03624112       0.26450113       0.72714297       0.28683992      -0.25753615       0.15314414       0.68815967       1.29400607       0.62410677       0.02445851      -4.66297850
O        0.24312353      -0.39520192      -2.39225960       0.38761789      -0.79984492      -0.63250911       0.29513443       1.51827674      -0.30981273      -0.16440216      -0.08096931       1.17158666      -0.18142357      -0.05330356      -0.11203078       0.54504722       0.37418162      -0.64584999      -0.63543815      -4.68588597
O       -1.15894949      -1.86586094       1.75558269       0.02657091      -0.79649061       0.51750600       0.26877964       0.73708856       0.03672188      -0.00789097       0.28092312       1.03906164      -0.48690056      -0.17492741      -0.48155890       0.67224581      -0.02011611      -0.79065809       0.49274044      -4.70141875
O        2.72981000      -2.84680128       1.08531594      -0.20598954       0.15241852      -0.58446616       0.28617230       0.79566785      -0.37843887       0.45210073      -0.47896399       0.89866744      -0.25114306       0.29053884      -0.01061856       0.90030170      -0.17995694       0.16043956      -0.56378299      -4.69341829
O       -1.15648937       1.21150756      -1.98069954      -1.33199430       0.18359904      -0.06464608       0.30966491       0.97050147       0.10524453      -0.08772709      -0.06702324       1.52041911       0.15862919      -0.18410776       0.06703620       0.57315466      -1.24281175       0.20449509      -0.15739325      -4.63384011
C       -2.90300131       0.90238637       2.64728737      -0.28593543       1.48735189       1.56878436      -0.06990161      -1.04468993      -0.65522648      -0.05107725      -0.39198352      -0.90935650      -0.77681352       0.36043375      -0.66318161      -1.34669629      -0.24474226       1.48443876       1.58695485      -5.39972560
C       -0.93288821      -0.01642019      -2.14223909       1.34720397       0.76970869       1.04609025      -0.09728101      -1.47965433       0.33148889       0.34921473       0.25074120      -1.77502892      -0.26158786       0.33485506      -0.09515090      -0.19215981       1.30267351       0.77231739       1.05224648      -5.04888672
C       -1.02891898      -0.85986733       1.09857869      -0.51859808      -0.43842316       0.11454021      -0.08054771      -1.44026014      -0.24463475       0.19200921      -0.37569373      -1.16650660       0.68686541       0.31985495       0.63134131      -0.56543559      -0.46986853      -0.51569100       0.17591398      -5.30841502
C        1.95010519      -2.12378430       0.46489763       0.47055054      -0.49661765       0.28890559      -0.09405780      -0.72716301       0.54119389      -0.58931485       0.60567445      -0.94527465      -0.07644384      -0.54823258      -0.15752674      -1.58242124       0.41097847      -0.44439938       0.23710486      -5.30290362
N        1.53661537      -2.36625147      -0.79525977      -0.19464760      -0.41216785      -0.21123739       0.14453870       0.41658588      -0.22157269       0.21860265      -0.13356914       0.62463104       0.29400329       0.32497074       0.13313574       1.10185326      -0.25034874      -0.41591621      -0.19035644      -4.64315819
N       -3.22960901       0.12644696       1.64271963       0.68153095      -0.95407820      -2.11673927       0.10357744       0.66582563       0.11882512      -0.08571444       0.13076840       0.57514926       0.48028552      -0.14548097       0.58869585       1.14422224       0.68871543      -1.00213423      -2.15560678      -4.81566974
N        0.17064703      -0.32989228       0.79641831       0.67575073       1.00282073      -0.83801985       0.12210644       1.23086978       0.29564202      -0.20212853       0.10371062       0.55179787      -0.11910261      -0.00005199      -0.09888744       0.31341367       0.74056372       1.02372133      -0.83871869      -4.75350251
C       -3.87178659       0.96277255       3.79897308       0.45776510       0.45712808       0.57464182       0.10800391      -0.01044930       0.03984739      -0.08811030      -0.00083738      -0.06296930       0.06092045      -0.12736907       0.03304452       0.06340928       0.45893475       0.45144754       0.55068433      -4.67325934
C        1.92859411      -3.60516739      -1.50423622      -0.71067131       0.23827176       0.72073877       0.06089082      -0.14606311       0.03258082       0.03249584       0.13191614      -0.50309912      -0.23510800       0.02413059      -0.14331850      -0.24920129      -0.68446877       0.23031994       0.70435479      -4.80882311
C       -1.96116722      -1.08357286      -1.82183182      -0.82012659      -0.21772075      -0.06676408       0.07891156       0.05775160       0.11912021      -0.01045188       0.15303781       0.09245947      -0.02670986      -0.07491040      -0.05738265      -0.15621277      -0.82737316      -0.26755209      -0.06520884      -4.80867388
C        2.81208420       1.00044179      -0.04093283      -1.31815052       0.40725812       0.47545061       0.09142596      -0.09509474       0.00022822      -0.02488464       0.05794916      -0.09320849      -0.02757206      -0.00152908      -0.03335856      -0.09129384      -1.37552100       0.36360839       0.53844184      -4.71636986
C        1.99335241       2.31804276      -0.19548842       0.35234037      -0.63507819       0.53748655       0.09033752      -0.12640886      -0.01183255       0.05709890      -0.05493753      -0.13893270       0.04638509       0.02100554       0.01119790      -0.00357259       0.37037314      -0.64115760       0.52314804      -4.71905027
C       -2.93100810      -0.79305005      -0.63764960       0.36403430      -0.43110025      -0.56406170       0.09195986      -0.08554735      -0.01802167      -0.01493154      -0.07297496      -0.14215990      -0.05893969       0.01451142      -0.01338689      -0.12960368       0.37540970      -0.51461029      -0.54255252      -4.76854944
C        2.54413438       0.22417247       1.27321875      -0.14129987      -0.08870161      -0.31283936       0.09321669      -0.13736897      -0.06593866       0.02457982      -0.09003748      -0.07430810      -0.00328195       0.04392619       0.02134467      -0.13192433      -0.12482422      -0.09496667      -0.36847327      -4.73542039
C        2.11992645       2.89329267      -1.58378530       0.15745038       0.99142420       0.51672417       0.01165188      -0.20073867      -0.00162044      -0.15693752      -0.09976784      -0.21183452      -0.10553757      -0.11489722      -0.09610142      -0.37404575       0.13017229       0.93788130       0.55591409      -4.80574483
C       -2.27142572      -0.12795377       0.56209743       0.43344107       0.48428258       0.25724104      -0.01599760      -0.40970771      -0.06944150       0.28617165      -0.01599227      -0.12257749      -0.12538858       0.10075724      -0.17430101      -0.46028945       0.39807514       0.57156741       0.26534170      -5.17053161
C        1.46861434      -0.88501602       1.23225582      -0.82434380       0.34554946      -0.21924189      -0.01308063      -0.52866812       0.03542639      -0.09256654       0.06065282      -0.18523983       0.06255423      -0.16929982       0.06864644      -0.14597067      -0.86341344       0.30195411      -0.19269932      -5.14275021
N        1.26646268       2.12517452      -2.47890997      -0.40066779       1.23932934       1.27420688       0.00865032       0.40275269       0.24326790      -0.02990033       0.23455555       0.44636298      -0.12969212       0.08303711       0.03065826       0.39909210      -0.40076194       1.20506108       1.22823443      -4.31615405
H        0.91082561      -1.72581148      -1.28744674       0.25693777      -0.02644287       0.20913729      -0.14103264      -0.28802417       0.16772757      -0.12577379       0.20333638      -0.45208252       0.25706263      -0.12476787       0.21597591      -0.33791449       0.28982886      -0.04497932       0.22097916      -3.89378875
H       -3.99288583      -0.46769994       1.77513611      -0.98800987      -1.08335316      -0.06897017      -0.21255878      -0.27260517      -0.01157461       0.00401452      -0.10862120      -0.21189729       0.07805610      -0.02925770       0.02135408      -0.14993711      -1.01073739      -1.08224746      -0.04490250      -3.55778125
H        0.14757025       0.52957720       0.24079347       0.11899529      -0.87997961       0.52077234      -0.18685888      -0.13862400      -0.03646382       0.01416020      -0.01130298      -0.20693314       0.02034902      -0.00554961      -0.00906311      -0.25795731       0.15217954      -0.96441497       0.52384753      -3.61409821
H       -3.80234432       0.06811219       4.37669945      -0.23502420      -0.90318227       0.18855585      -0.05069365      -0.02011481      -0.00503375      -0.00631045       0.01268306       0.04641677      -0.05626627      -0.01783136      -0.04710597       0.03325102      -0.23933784      -0.89695961       0.18303622      -3.96406726
H       -3.59648800       1.73788834       4.50612974       0.28549960       0.24949716      -0.29114029      -0.04138062       0.01399728       0.01411858      -0.00681085      -0.00248574       0.03969748       0.06763784      -0.03145318       0.06072906       0.08601813       0.29994870       0.25190972      -0.29656621      -3.92365497
H       -4.87824583       1.16448998       3.50863266      -0.73835176      -0.17850962      -0.36884966      -0.05142675       0.09949562      -0.02367375      -0.00623113      -0.01363375      -0.02168349      -0.00158419       0.03952448       0.00033496      -0.01171953      -0.74109418      -0.18329791      -0.36404192      -3.98620250
H        2.92036438      -3.49242282      -1.91722131       0.19533573      -0.13909130      -0.20893230      -0.05250569       0.05445328      -0.03251826      -0.05180386      -0.00483030       0.01750191       0.01084963      -0.04387985       0.05103677      -0.00428861       0.19511923      -0.12286566      -0.19543983      -4.00110631
H        1.19187975      -3.84507418      -2.28626108       0.36692339       0.40671802       0.23060448      -0.05247717      -0.01013368       0.04507801       0.06270107      -0.04105963       0.08770617       0.06818744       0.00582691       0.09109141       0.06234504       0.35927619       0.42866216       0.25675055      -3.98610087
H        1.92117858      -4.44702148      -0.80073363       0.16177106       0.34330934      -0.11702421      -0.03908859      -0.02535909      -0.00341378      -0.00485176      -0.05279039       0.09162022       0.00688949       0.00298391      -0.07997208      -0.00853196       0.15679740       0.33871947      -0.11648213      -3.97225569
H       -1.46862125      -2.02138758      -1.58650744       0.48425794       0.10818071      -0.05590077      -0.05269608       0.05034248      -0.05377569      -0.02017394      -0.03990184       0.10915149       0.01645195      -0.00382414      -0.01594125      -0.00300958       0.46552153       0.13155513      -0.04941107      -3.97193165
H       -2.52450037      -1.32001805      -2.74665976       0.06384695       0.33547172       0.52512926      -0.05353598       0.02789131       0.01786489       0.02733972       0.04947086       0.01244426       0.06389394       0.00557322       0.02589540       0.11000333       0.08256096       0.34774268       0.52749399      -3.99238137
H        3.85808754       1.25641418      -0.05505860       0.35344785       0.08099222      -0.25980589      -0.06380714       0.09826556       0.02143071      -0.02461976       0.02203073       0.00068202      -0.02121245      -0.05069656      -0.03347037      -0.00446907       0.35380219       0.07145449      -0.27745402      -3.95766356
H        2.57821226       0.36805588      -0.89260632       0.22189960      -0.29208630      -0.07722869      -0.05202232      -0.02081323       0.02286616       0.00140859      -0.01405554       0.02092936       0.06514049      -0.05170005       0.03827066       0.07646017       0.18985785      -0.24850081      -0.10768013      -4.00619390
H        0.92124212       2.15882349       0.03851885       0.62853146       0.28024641      -0.11364889      -0.04783996       0.11509043       0.00599923      -0.05964232      -0.01496429      -0.02024773      -0.03818288      -0.06351296      -0.06204850      -0.02659357       0.67694148       0.32147420      -0.16831360      -3.92436331
H        2.36982679       3.06063294       0.50385213      -0.09121179      -0.05864246       0.17133310      -0.06297641      -0.04037557      -0.01646455       0.04014260       0.01376346       0.06278273       0.04556412       0.02405042       0.03409283       0.08671092      -0.08621057      -0.03380334       0.16534908      -3.96410438
H       -3.72857952      -0.14113581      -0.96720678      -0.23426627       0.06635193      -0.00588883      -0.05938826       0.07545606      -0.03528456      -0.00015614      -0.06658540       0.02762851       0.00283276       0.05133958      -0.00312738       0.00169764      -0.24368766       0.09122312      -0.02480267      -3.99278758
H       -3.33967900      -1.78191996      -0.37548524      -0.05842122       0.48309964       0.15654896      -0.05538710      -0.04423442       0.01878704      -0.04791322       0.04085743       0.06286147      -0.02116721      -0.00131511       0.00767713       0.06956188      -0.05821516       0.49834818       0.16266517      -3.97859317
H        2.28244257       0.90280205       2.08323526      -0.00333129       0.15002213      -0.07254752      -0.05914189      -0.01402104       0.00473794      -0.03415286       0.02834491       0.04714361       0.06205556      -0.01527255       0.05407643       0.06800854      -0.00155895       0.13140377      -0.04040421      -3.97481861
H        3.49287271      -0.22487369       1.53539407      -0.04236433      -0.37063029       0.26531455      -0.05527527       0.08053475      -0.00078352       0.01465318      -0.04463649       0.00818384      -0.04449270       0.01818545      -0.02379668       0.01367976      -0.02300378      -0.34057176       0.27136660      -3.96047999
H        3.14205074       2.88857079      -1.97348571      -0.13503288      -0.03915172       0.24029595      -0.06228645       0.06000588       0.01418585      -0.00869431      -0.02546180      -0.05962184       0.02875037      -0.00975133       0.01428361       0.00789335      -0.14180519      -0.04943405       0.23810075      -3.96480931
H        1.74386001       3.93424773      -1.58232248       0.29003316      -0.52119499      -0.16951467      -0.06077185      -0.04657232      -0.05757987       0.02001563       0.01830987       0.15013928      -0.04968564       0.01197921      -0.00751664       0.01047327       0.30590365      -0.50164974      -0.16561778      -3.94407344
H       -1.88186336       0.82711226       0.25682867      -0.34749797       0.51022208      -0.24965075      -0.04245730       0.08890671       0.00139690       0.01105428       0.07886860       0.02231123      -0.01238506       0.06840538       0.00342164      -0.12351565      -0.34722462       0.52079682      -0.25350848      -3.93447776
H        1.32321143      -1.29086375       2.24072409       0.05254269       0.27630469      -0.26237336      -0.05135766      -0.00913105       0.03208551      -0.02228997       0.01176471       0.01654506      -0.03883149       0.02436603      -0.03756949       0.06835024       0.09034162       0.29228446      -0.27006830      -3.95678336
H        1.35554695       1.13124228      -2.43158388       0.01134966      -1.74597418      -0.09097525      -0.13771497      -0.34163891      -0.16090956       0.04798442      -0.15929624      -0.46699036       0.03590533       0.06687236       0.06222274      -0.27256800       0.00597152      -1.72396345      -0.02383232      -3.43022533
H        1.36407804       2.44662309      -3.38830090       0.10621455       0.39664492      -2.26124048      -0.20083295      -0.24112220      -0.07076472       0.06751193      -0.05837302      -0.28113539       0.11091500      -0.01034595       0.01345539      -0.32248340       0.10201995       0.40212401      -2.24839470      -3.32196932
H        0.27754498       2.23450518      -2.20028448      -0.66679776      -0.56483948      -0.12027759      -0.12522002      -0.60147251      -0.23979487       0.06596160      -0.23311142      -0.41993594       0.13242794       0.07367582       0.02425241      -0.14353736      -0.69307232      -0.63343325      -0.12797724      -3.41193689
42
Properties=species:S:1:pos:R:3:original_dataset_forces:R:3:LES_q:R:1:LES_BEC:R:9:forces:R:3:energies:R:1 original_dataset_energy=-190.6107940673828 energy=-190.55415322587695 stress="inf -inf inf -inf inf inf inf inf -inf" pbc="F F F"
O       -0.40238807      -0.98270893      -4.27275085      -0.66952515       0.63376987      -0.53305542       0.28804335       1.05992450      -0.39530788      -0.30235517      -0.30890663       0.55069336       0.27645281       0.01231792       0.12744897       0.89321239      -0.64810522       0.63386327      -0.51180587      -4.68348002
O        3.44972467       0.12210971       2.24064875      -0.43589473       0.30259904       1.56178749       0.39982596       1.12936745      -0.38553629       0.52691749      -0.45093804       0.85634798      -0.39249093       0.49901170      -0.10063521       1.19906364      -0.42709181       0.38005334       1.52523897      -4.38283897
O       -1.24737132      -0.45940042       2.20149064       1.67539668       3.52351093       0.86375302       0.29208109       0.46739922       0.29069898      -0.01773326       0.04035515       1.20411985       0.64264343      -0.24744719       0.19825651       0.96282491       1.73409305       3.66322592       0.84870172      -4.63983277
O       -1.98432600       1.61429644      -0.44373760       1.25678253      -1.78344142      -0.24898647       0.29850996       1.20643888      -0.27990393       0.24431828      -0.42523773       0.61041291       0.12132560       0.05199370       0.17719885       0.62717536       1.26932991      -1.78680696      -0.21102541      -4.65184079
O        2.77295280       0.93387985       0.36099786      -0.64625961       0.93139708      -1.12440491       0.35559407       0.96151832      -0.02376468      -0.02675172      -0.04752421       0.64293731       0.06305279       0.19659995      -0.15987617       1.48466342      -0.59401149       0.93889720      -1.17381498      -4.43761200
C       -1.45339668      -0.40793505      -3.94752240       0.30256045      -2.69965339      -0.54850781      -0.08188000      -1.17961770       0.46181249       0.22590257       0.35010588      -0.46547525      -0.75208115       0.03227228      -0.57506337      -1.68002641       0.31200223      -2.64899088      -0.63233482      -5.22839690
C        2.68352556       0.87111509       1.61157703      -0.10636566      -1.55097651      -1.06526315      -0.06595863      -1.06244322       0.68521162      -0.20298802       0.73178668      -0.69680137       0.40714969      -0.44675290       0.27392006      -2.00895647      -0.10354625      -1.59469455      -0.87738953      -5.06910035
C       -0.85064530       0.72484326       2.50374818      -2.30458045      -3.98405242      -0.23638383      -0.09100682      -0.42537154      -0.30433359       0.25916321      -0.12872380      -1.36820733      -0.82707675       0.46735615      -0.49045362      -1.31420624      -2.40851662      -4.14009106      -0.24095146      -5.23881419
C       -0.90640604       0.98310459      -0.53833085      -2.37289238       1.65934145      -0.92180437      -0.08760006      -1.58706980       0.34051600      -0.51644258       0.36538127      -0.55500316      -0.39596560      -0.31111925      -0.38858458      -0.93570080      -2.45917467       1.61045391      -1.03362511      -5.26735812
C        1.65556788      -1.91456521       0.31616002       1.08586502       0.44541901      -2.39539647       0.00223871      -0.06269349      -0.04716921      -0.09803480      -0.07964335      -0.01113716      -0.00801079       0.10886438       0.09203676      -0.17470344       0.88593336       0.46264921      -2.36054995      -5.30986534
C        1.04782343      -1.75035560      -0.90376770      -0.82469845       0.36813819       1.88637638      -0.02975263      -0.27309915       0.03875845       0.11500107       0.03570003      -0.05136726      -0.01841138      -0.20539835       0.04914609      -0.14174896      -0.67851900       0.23657600       1.92724435      -5.50114160
C        3.23955870      -1.82994175      -1.25868583      -1.31246459      -0.59291279       1.05552983      -0.13167311      -0.27278472       0.09457292      -0.15112237       0.10524507      -0.21446356       0.00697855      -0.07121171      -0.04548311      -0.45951266      -1.24251109      -0.56492481       1.05423405      -5.60716019
N        3.04110551      -1.95007861       0.07255900      -1.50157177       0.06644829      -1.81461823       0.01102867       0.03062672       0.08262886       0.15467759      -0.04038798       0.00113185      -0.06612669       0.01198027       0.01101602       0.39985210      -1.48734464       0.16255624      -1.81021327      -5.10755233
N       -1.24163401       1.35212493       3.64730549       0.39160278       0.20988242      -0.98281449       0.10338853       0.33934265      -0.05670664      -0.37386089       0.05270701       0.50548668       0.18425303      -0.31059175       0.40420675       0.99857119       0.39181862       0.22972826      -0.91482908      -4.68569288
N        0.12836096       1.18840265       0.25454265      -0.48489758      -0.53145432       1.10252714       0.10176389       0.99879302      -0.05732752       0.31943783       0.10086602       0.26411739       0.23142867       0.39871729       0.11570118       0.84779017      -0.37840280      -0.56916326       1.04834877      -4.81471385
N       -1.59957647       0.04483306      -2.72719312       0.45228490       1.45720589       2.11546373       0.09919526       0.42242533      -0.11821662       0.11144588      -0.05073920       0.40681160       0.46895255       0.07381124       0.37528012       1.44647825       0.50877653       1.45920037       2.21245552      -4.84831198
N        1.99401677      -1.74852514      -1.83573031       3.86719131      -0.00146532      -0.81145710      -0.01316797       0.33888297      -0.07904526       0.16287028      -0.01196114      -0.00859297      -0.06374794       0.08148519      -0.01508881       0.40018779       3.81612472       0.00982245      -0.78786390      -5.15199485
C       -2.79276037      -0.33434871      -4.68144226       0.00144485      -0.74195760       2.44994760       0.09794489       0.06633956      -0.07438220       0.11464017      -0.06075389      -0.10021495       0.03767712       0.08581848       0.02967504      -0.03717237      -0.00898165      -0.79292449       2.42778663      -4.54775692
C       -2.08926821       0.84325814       4.70439720       1.15738654      -0.08990116       0.08920757       0.06041241      -0.28233375      -0.06684986       0.20089781      -0.12179301      -0.12662561       0.19550523       0.15308313       0.08921029      -0.36012369       1.13067293      -0.10235893       0.05054933      -4.85247117
C        1.48201549       1.64257503       2.26126671       0.49417302       0.02256309       0.36764503       0.07261898       0.14287908      -0.06154974      -0.03851929      -0.13841316      -0.03571223      -0.00806314      -0.13501004       0.01753951      -0.01540560       0.41993487       0.06501430       0.32662180      -4.69964743
C       -0.38292465      -1.45629704      -1.24630833       2.05453253       0.68349713       0.50576669       0.05146058       0.02144961      -0.00777477      -0.01447522      -0.02958411      -0.08428851       0.07756130       0.03460022       0.06401777      -0.10830746       2.11698784       0.78967019       0.57434392      -4.78387970
C        0.04810421       1.58163536       1.65214658       0.61123216       0.56713885      -0.89011693      -0.03322612      -0.23031961       0.03103727      -0.11697589       0.04609492      -0.10221173      -0.10033901      -0.11520932      -0.16280775      -0.58027923       0.67617473       0.50701813      -0.93013360      -5.12974544
C       -0.59058994       0.02039754      -1.71616817       0.54290062      -0.41564554       1.00088644      -0.01149192      -0.30448888      -0.08700127      -0.32120062      -0.07456955      -0.13921576       0.10124618      -0.26221417       0.10201224      -0.33502668       0.48848765      -0.43102943       0.98885508      -5.02481255
H        1.09569848      -1.93945718       1.18738365      -0.04295916       0.07808609       1.88068211      -0.06951456      -0.06636707       0.00985673       0.00744195       0.02366150      -0.13379073      -0.00713891       0.08816345      -0.09228175      -0.05347686      -0.05028482       0.01130508       1.85070553      -4.20406949
H        4.22267151      -1.97131515      -1.70846057      -0.69509345       0.44479510      -0.11263642      -0.06895281      -0.07369133       0.02111722      -0.00223626      -0.02450092      -0.05862225       0.00481052       0.03592112      -0.02021414      -0.04232510      -0.72025095       0.39161106      -0.15530079      -4.23559980
H        3.80481648      -1.80763710       0.71011764      -0.14930728       0.15206254       0.74070722      -0.19965343      -0.20851635      -0.04072994      -0.06053185      -0.05334362      -0.26240934      -0.06335234      -0.18564740       0.00640657      -0.34517120      -0.16006851       0.16098610       0.75163940      -3.70622302
H       -1.13493633       2.35846758       3.62602234       0.14536186      -0.35056472       0.18535922      -0.21171711      -0.17409560       0.00966789      -0.01054211       0.02397146      -0.31971955      -0.10705287      -0.00967134      -0.06585742      -0.27000813       0.16155057      -0.34348552       0.20526538      -3.53244842
H        1.02205014       0.88236177      -0.06471318       1.25630367      -0.21114877       0.22571875      -0.15442032      -0.77701138      -0.03885871      -0.08001055       0.01059006      -0.14045176       0.04354535      -0.02928623       0.03638801      -0.09589147       1.17806209      -0.20208234       0.20753606      -3.76841508
H       -2.41745329       0.51869398      -2.43311429      -0.85505414       0.47602358       0.14853959      -0.19292423      -0.29579014       0.04038022      -0.06923717      -0.00675341      -0.21444898      -0.04876386      -0.03922037      -0.01361192      -0.25841856      -0.89163099       0.49946435       0.11456686      -3.59524157
H        1.85912478      -1.66942811      -2.82994342      -0.26852295       0.11766567      -0.13767271      -0.21136269      -0.24478865      -0.00409330      -0.03502565       0.00096283      -0.20568779       0.01258300       0.01198820      -0.02831562      -0.44417983      -0.27849235       0.11155793      -0.14836182      -3.66827556
H       -2.81853437      -0.81898314      -5.59215975       0.28344768      -0.87431389      -1.87189269      -0.05516261      -0.01917441       0.00586615      -0.00865358      -0.01293492      -0.01146018       0.00622500       0.00103890       0.03273388       0.04278665       0.29197037      -0.86405265      -1.85610836      -3.99319417
H       -3.62269402      -0.80330056      -4.02598429       1.39401209       1.17111742      -0.96487141      -0.03855657       0.15061200       0.04901820       0.06230687       0.06384837       0.00350461       0.00353439      -0.03939168      -0.03134361       0.06022807       1.36587580       1.17838453      -0.94851793      -3.92571952
H       -2.84888101       0.71290553      -4.79691696      -1.13910365       1.19959199      -0.38913685      -0.05258130       0.03207894      -0.00095891       0.06060995      -0.00703480       0.07162018      -0.00603347       0.06253224      -0.00628656       0.06081873      -1.13472242       1.20776123      -0.37668065      -3.92603983
H       -2.98488498       1.38441694       4.69082689      -1.32572341       1.02619874       0.29643074      -0.05432756       0.08476394      -0.02130133      -0.07011336      -0.02131634      -0.01364180      -0.02628063      -0.02497101      -0.01921967       0.00120760      -1.32415151       1.04016345       0.29474224      -3.93855605
H       -2.40110755      -0.16897124       4.55012846       0.46002114      -0.64455986      -0.20122522      -0.04108314      -0.01140985       0.02658685       0.00931548       0.05535184       0.05009782      -0.05609854       0.03685670       0.00654622      -0.08775669       0.48585920      -0.63200308      -0.20816562      -3.97760789
H       -1.55754840       0.98342419       5.65438652      -0.39542592      -0.28691080      -0.14849873      -0.05150781       0.00774970       0.01150159       0.01050010       0.03775511      -0.03190558      -0.04695349      -0.03104566      -0.00548290       0.15188778      -0.38844815      -0.29497708      -0.14913684      -3.96800194
H        1.75986183       2.67632818       2.27463365       0.34812793       0.64519233      -0.25039902      -0.05559451      -0.00169387      -0.00095241      -0.01589415       0.03618197       0.11012668       0.04472368       0.01734955       0.03590508       0.00503110       0.36822971       0.66122542      -0.24143448      -3.97342511
H        1.41874325       1.39447212       3.30457163      -0.01095738      -0.38532838       0.38951579      -0.05126475      -0.01630101      -0.05713411      -0.06569572       0.00401816       0.00617600       0.01073913       0.01454960       0.01718766       0.15132461       0.06468430      -0.41061464       0.42066548      -3.97207347
H       -0.87766612      -1.69003177      -0.33026591      -1.25927842      -0.33165991       0.02510666      -0.05922940      -0.02951055       0.01889445      -0.00560722       0.01088361      -0.02048931      -0.05053825      -0.01230312      -0.03122304       0.05380550      -1.21404662      -0.34054148       0.02453379      -4.03351330
H       -0.48400599      -2.04628372      -2.12125039      -1.33123481      -0.82571268      -0.48553410      -0.04030525      -0.00940472      -0.01584866       0.00268130       0.02718103       0.00739149       0.05259731       0.01824274       0.05014508      -0.07408693      -1.38065320      -0.81203626      -0.50590538      -3.93303299
H       -0.42149687       2.57590055       1.71393633       0.37327316      -0.13295235      -0.15649875      -0.05587870       0.05119536      -0.01333194       0.02188557      -0.03841462       0.06691311       0.03327304       0.01729306      -0.01463815       0.03969969       0.34990663      -0.14253999      -0.15753496      -3.95049420
H        0.38477543       0.34001619      -2.06439877      -0.01996955       0.25532645      -0.60089731      -0.05343238       0.09618950       0.01995286      -0.00600591       0.01082647       0.01405528       0.01826738      -0.03535598      -0.04551124      -0.00412424      -0.03752034       0.26212946      -0.62235107      -3.96925055
42
Properties=species:S:1:pos:R:3:original_dataset_forces:R:3:LES_q:R:1:LES_BEC:R:9:forces:R:3:energies:R:1 original_dataset_energy=-192.4518280029297 energy=-192.45351335950616 stress="inf inf -inf inf -inf inf -inf inf inf" pbc="F F F"
O       -2.49949455      -0.11934322      -1.82304072       0.29556677      -0.05294375      -0.75049263       0.26758075       0.75423439       0.09446850      -0.15858496      -0.11116869       0.79331282      -0.44053307      -0.09526391      -0.54253424       1.01821118       0.29919070      -0.05421295      -0.79760932      -4.75083981
O       -0.43082279      -1.95561433       1.97143960      -0.18976955      -0.80611080      -0.71120077       0.38096952       1.19087404      -0.03945148      -0.15125635      -0.32673992       0.78440943       0.35939662      -0.27201824       0.29440698       0.95436776      -0.14031213      -0.81373394      -0.75909158      -4.49996611
O        1.41986763       2.99259520      -0.97046131       0.72127473       1.36806214       0.48783988       0.26467067       0.67938359       0.00030178       0.42671294       0.39791355       1.10771522       0.24991953       0.35082860       0.09148031       0.72869688       0.68951718       1.33152299       0.47267137      -4.74050541
O        0.88078594      -1.58677781      -2.55988073      -0.71894926      -0.36568433       1.42366505       0.28988147       0.58628048       0.00842465      -0.37719246       0.10744812       0.67457696       0.14706828      -0.29169550       0.42201332       1.22478359      -0.69241031      -0.38459817       1.43057438      -4.67246654
O        1.61185932      -2.60530806       1.46561038      -0.28402102      -0.46024293      -0.56296450       0.30573151       1.45711788      -0.21215327       0.11263464       0.13095776       0.80902329       0.25565337       0.22371545       0.22325493       0.60118261      -0.15370414      -0.43313435      -0.56193612      -4.64799688
C       -2.71298456      -0.74114633      -0.79334861       0.35729501       0.96580887      -0.75052828      -0.06547929      -1.01214238       0.49972925       0.09240443       0.76531836      -1.00490872       0.70040920      -0.02874760       0.70584371      -1.14641716       0.38256779       0.93347044      -0.66742654      -5.34402804
C        0.36254689      -2.64821553       1.25908327       0.50296402       1.71099842       0.87944090      -0.07743601      -1.88327248       0.37296849       0.03274828       0.29080837      -0.58894088      -0.60868990       0.12082368      -0.58546167      -0.93889706       0.35711704       1.71431688       0.94480570      -4.98675933
C        0.96571112       1.96061063      -1.40987897      -0.08448549      -0.30684698       0.82603025      -0.09549852      -1.04835793      -0.09388133      -0.83983427      -0.27864470      -1.34500704      -0.14881396      -0.76026875      -0.14610683      -0.74451678      -0.01038409      -0.29687001       0.86912640      -5.36534189
C        0.32910940      -1.44896150      -1.45577455       0.12879784      -0.05756653      -2.95635533      -0.09981902      -0.64567443      -0.42879483       0.28878059      -0.36128008      -1.15321771      -0.62303881       0.32781023      -0.68011351      -1.47677640       0.10396955      -0.02263801      -2.97064847      -5.24313233
C        1.77577639       2.07291818       2.04351282       0.70042932      -0.77211684      -0.76726842       0.01339273       0.01434099       0.07219106       0.01908905      -0.01906537      -0.15210563       0.21769852       0.01699970      -0.07349715      -0.04250315       0.74498856      -0.85967472      -0.76261979      -5.32527865
C        2.23260832       0.89911282       1.46718442      -0.38996029       1.74414551      -0.80436635      -0.04373343      -0.00028994       0.00977645       0.23409487       0.03607612      -0.23393550      -0.19293110       0.09513545       0.08678461      -0.35386985      -0.37771985       1.70322203      -0.81515511      -5.55370347
C        1.27405202       0.39059472       3.36733603      -0.51620632      -0.90911824       1.15626657      -0.11661500      -0.15114446       0.12694167       0.11178006       0.04717149      -0.48833473      -0.26595049      -0.06670150      -0.22864826      -0.42284440      -0.52743584      -0.92519770       1.15179036      -5.71724239
N        1.21635652       1.71245098       3.27255392       0.27440032       0.78756112      -1.55801451      -0.00776952       0.02611423      -0.09060404      -0.14066479      -0.06864941       0.44799857       0.14141890      -0.11636712       0.12617961       0.11865055       0.30059297       0.85123156      -1.57208590      -5.15370752
N       -0.10237874       1.92592049      -2.19750333      -0.07648287      -0.60597724      -0.13910721       0.12235593       0.83942363      -0.10096925       0.58948994      -0.13255824       0.51179619      -0.11339627       0.47502591       0.02912195       0.52942847      -0.09239197      -0.62138153      -0.18942327      -4.72158344
N        0.64442122      -0.41162851      -0.67070705       0.12515780       1.07241380       1.00711501       0.11998351       0.58277253       0.40141144       0.11942281       0.29950871       1.07893775       0.40913225       0.02170925       0.27488058       0.70662460       0.10904208       1.06980529       1.07311017      -4.74822879
N       -1.94184744      -1.71506500      -0.32965618       1.12873030      -1.45649850      -0.04398115       0.12003148       0.93667115      -0.39480730       0.21112871      -0.61990390       0.73912144      -0.35068926       0.03468122      -0.18589343       0.53470506       1.14311204      -1.45677414      -0.15190060      -4.76408765
N        1.91849589      -0.10676903       2.32178354      -0.66473007       1.33316600       0.75985479       0.00924896       0.08024147      -0.09779827      -0.20794224      -0.03581221       0.61810634       0.21404678      -0.00955722       0.17452936       0.47363130      -0.67330927       1.30795588       0.77923676      -5.25239411
C       -3.84284425      -0.35934603       0.08411634      -0.76925087       0.26275259       0.94249767       0.10251153      -0.03546434      -0.07325151      -0.11633623      -0.09758855      -0.07767646       0.00792658      -0.06071659       0.00527828       0.01599792      -0.78552451       0.26815341       0.95565696      -4.67876361
C       -0.90977144       3.08758545      -2.46951699       0.37145135       0.15121484       0.21382658       0.06072694      -0.27551590       0.22451216      -0.12979057       0.17482850      -0.34382261       0.11748310      -0.05118851       0.07705431      -0.16546119       0.36739371       0.16584090       0.22535638      -4.86806043
C        2.75467515       0.73722231       0.05527157       0.06980477      -0.33264521      -0.58744144       0.05006665      -0.18610276      -0.02392383      -0.05012615      -0.03188804      -0.09964373      -0.01959751      -0.00536742      -0.01433686      -0.09725150      -0.00257692      -0.27237391      -0.54906017      -4.87405599
C       -0.18495540      -3.36717701       0.01171023      -0.37474775      -0.64085191       1.23911297       0.05690734      -0.02653785      -0.04847332       0.04741991       0.02937299      -0.09579557       0.11820240       0.10924358       0.04360623       0.13393363      -0.36570481      -0.60137524       1.23932462      -4.80959538
C        1.62660742       0.62947094      -1.03788853       0.15082286      -0.89261544      -0.26920465      -0.00981890      -0.48603157      -0.31003985       0.00348680      -0.30663481      -0.29954677       0.05858727       0.00515522       0.05078247      -0.14812222       0.10769433      -0.92289756      -0.35580206      -5.05469534
C       -0.79329371      -2.40595651      -0.99754357       0.05225874       1.73949885       1.89826918      -0.02517057      -0.38629619       0.19286934      -0.00046559       0.27787050      -0.34324895      -0.02707400       0.05059637      -0.06193208      -0.18281020       0.00936555       1.74412816       1.93494853      -5.14106621
H        1.79129171       3.04307485       1.54762912      -0.13659772      -0.25519067       0.69998527      -0.06452087      -0.06901498      -0.02047380      -0.03597216      -0.01346685      -0.01386118       0.01218426       0.00128910       0.03209195      -0.09327285      -0.13815136      -0.24902128       0.69846940      -4.22188335
H        0.78547215      -0.18480712       4.16006088       0.48750895       0.20071957      -0.57959539      -0.06422070      -0.05350338      -0.00358879       0.02278879      -0.01233478      -0.06010089      -0.00160768       0.01287747      -0.00682130      -0.02623989       0.49059475       0.17614789      -0.58561619      -4.23554268
H        0.72469008       2.37561584       3.85207200       0.09209055      -0.45709550       0.20575385      -0.21671066      -0.26151676       0.02780834       0.05643659       0.02288007      -0.32977729      -0.14368017       0.04810806      -0.05886726      -0.32618235       0.07172584      -0.45851109       0.19813141      -3.65316439
H       -0.50139469       1.03009737      -2.34372807      -0.54891074      -0.69305551      -0.28440195      -0.17496954      -0.27674639      -0.00987048      -0.09399188      -0.09735385      -0.25731933      -0.02877052       0.02981473       0.04713339      -0.27313012      -0.55847772      -0.65633220      -0.28740830      -3.69087017
H        0.14822429      -0.32313353       0.21352720       0.16029811      -0.00613809      -0.37044239      -0.19175456      -0.20038074       0.00991852      -0.00999480       0.02831973      -0.20503402       0.01136981       0.00550620       0.03403671      -0.29942255       0.16842218      -0.10603135      -0.38019454      -3.70752725
H       -2.08289838      -1.96656418       0.63217211       0.25454015      -0.14156136       0.24221547      -0.18560153      -0.27850793      -0.04451798      -0.06584173      -0.04598243      -0.18858632       0.04493526      -0.09165370       0.05672529      -0.32100539       0.25590517      -0.13924855       0.26346183      -3.60774361
H        1.85150075      -1.07705927       2.03415155       0.13590051      -2.15278935      -0.15710646      -0.11663930      -0.24584949      -0.09939164      -0.05093977      -0.06989083      -0.81976091      -0.19565684      -0.07420260      -0.21050574      -0.26616571       0.11026001      -2.08397667      -0.21211999      -3.95102026
H       -3.49120378      -0.22451907       1.10827005      -0.00397276      -0.20299730       0.06548285      -0.04652048      -0.00256029       0.00877433       0.01781153      -0.02301227      -0.02324650       0.01566841       0.03817645       0.01452143       0.09087472       0.01027277      -0.19617546       0.05343287      -3.95341459
H       -4.21839619       0.61796403      -0.22831234      -0.20520258      -0.46752095      -0.14899769      -0.04469727       0.03968303      -0.02798007      -0.00597912      -0.06744582       0.06415520      -0.01342693      -0.01418966      -0.02710838      -0.00361569      -0.20487187      -0.46688059      -0.13930719      -3.94864294
H       -4.61238289      -1.14854729       0.10104060       0.17088607       0.51993477      -0.09380604      -0.05060655       0.07325858       0.03401381      -0.01103655       0.07925928       0.04174487       0.00187763      -0.00357087       0.00316482      -0.01330312       0.15651163       0.52981300      -0.10249130      -3.99348596
H       -1.13568997       3.59360981      -1.54557526      -0.13446257       0.24328512       0.39021733      -0.04185233      -0.02651504      -0.03191894       0.02021353      -0.01978236       0.00753378       0.04220351      -0.03920851       0.05921967       0.02765206      -0.12935448       0.22826165       0.38768151      -3.96171182
H       -0.34447330       3.78686571      -3.07490206      -0.17621468       0.08173458      -0.28809044      -0.04723739       0.00167242       0.03584110      -0.03897930      -0.00921676       0.04967711      -0.03400796       0.00530466      -0.06534201       0.02245690      -0.16428493       0.07666325      -0.28934164      -3.97644064
H       -1.83953774       2.77983499      -2.92213655      -0.01191965      -0.05154882      -0.28778154      -0.05133073       0.07056452      -0.05347496       0.06407663      -0.01134997      -0.00030337      -0.01344473       0.04645111       0.00549706      -0.01468245      -0.03392337      -0.04118239      -0.28975783      -3.98748609
H        3.41621256       1.58732104      -0.15294802      -0.43410516      -0.19048388      -0.09468196      -0.05496827       0.04453826       0.07946572      -0.01241554       0.10887582       0.03934781       0.02382815      -0.03413203      -0.00477004       0.01035176      -0.40830520      -0.20649501      -0.09916254      -4.00221442
H        3.37116146      -0.17137218      -0.10489807      -0.47616094       0.44641131       0.62717098      -0.05580647       0.00827890      -0.07932228      -0.00171579      -0.06689290       0.04927946       0.04067204       0.02441366       0.03685556       0.02769658      -0.47323686       0.44985669       0.66402154      -4.00766508
H        0.60176444      -3.95068908      -0.45086271       0.01771687      -0.00941729      -0.06235536      -0.05471403       0.04934359      -0.04548274      -0.00499959      -0.04865776       0.10765363       0.02523954      -0.01372224       0.05557084       0.02415906       0.02177067      -0.00009313      -0.05662748      -4.01408849
H       -0.99199569      -4.03725624       0.36043626       0.40283272       0.11984087      -0.24980868      -0.04962010       0.04802724       0.10740362      -0.00455576       0.07851745       0.16600800      -0.01299273      -0.00398052      -0.02654488       0.01483273       0.39965724       0.09471667      -0.25694586      -3.97464676
H        2.09770298       0.31109929      -1.99389279      -0.23481409      -0.17429395       0.79142630      -0.04940766       0.03645245      -0.00116660       0.00901146      -0.01283723      -0.03140630      -0.01151061      -0.00978437      -0.03767992       0.05143597      -0.21590412      -0.11775628       0.81095202      -3.97332615
H       -1.16452873      -2.97870898      -1.79650760      -0.16994472      -0.28768125      -1.33764291      -0.06595068       0.03215191       0.02451634       0.02908404       0.01303089       0.06518259       0.03089113      -0.00132923       0.00613024       0.04681676      -0.15168798      -0.25854046      -1.30102044      -4.02350796
42
Properties=species:S:1:pos:R:3:original_dataset_forces:R:3:LES_q:R:1:LES_BEC:R:9:forces:R:3:energies:R:1 original_dataset_energy=-190.45492553710938 energy=-190.47040315947154 stress="inf inf -inf inf inf inf -inf inf inf" pbc="F F F"
O       -4.14674759       2.28832579      -0.52272350      -0.04739108       0.08488543      -0.08602616       0.28781453       0.89528458       0.10837701      -0.01542380      -0.38356320       1.35159862      -0.14773500       0.06138313      -0.16512834       0.33235428       0.01236241       0.07570583      -0.06541730      -4.69033517
O        0.58493203      -0.96187705      -2.30442095      -0.82298559      -0.83135122      -0.62739950       0.37190187       1.09594025      -0.51769652      -0.30666352      -0.16505764       1.24200541       0.35045886       0.00341136       0.20830374       0.72795155      -0.84888669      -0.89329084      -0.62971802      -4.49467301
O        2.24391627      -1.78534555       2.70078683      -1.47120106       1.24667680       0.32949120       0.29259387       0.74966800      -0.18389860       0.60711919      -0.27799145       0.66896109      -0.21139715       0.30930181       0.07542940       1.05067873      -1.46761055       1.27843632       0.37970589      -4.63420609
O       -1.81507516      -1.08986604       1.51859307       0.42380777       1.23579085      -0.69531995       0.28989482       0.80897351       0.16861445      -0.00257695       0.48948009       0.82593155      -0.41275805      -0.26102187      -0.42352906       0.76030741       0.37896796       1.13929282      -0.69105013      -4.65935265
O        0.08418831       1.05248892      -1.65628207      -0.02812338       1.08047390      -0.51354653       0.31510872       0.91521941       0.28288089       0.07946279      -0.03538094       1.27294223       0.26004070       0.03929716       0.26554653       0.68229567      -0.17246931       1.00334612      -0.59852473      -4.47188563
C       -4.52322626       1.14276707      -0.34492230      -2.00220013       1.41444540      -0.04893912      -0.07579997      -1.23093666       0.22378386       0.02344154       0.89987319      -1.86100526       0.22405921      -0.04862056       0.18736079      -0.11010438      -1.96848777       1.29000398      -0.07347207      -5.31334990
C       -0.28023186      -0.11505720      -2.02151394       2.16797233       0.65705514       1.78645241      -0.10003220      -1.18152021       0.20884218       0.35885031       0.17117838      -1.83176561      -0.58224095       0.18110400      -0.44774299      -0.43059100       2.17151038       0.84693364       1.84512254      -4.91734448
C        1.42915368      -1.39940631       1.84718633       2.76417971      -1.09893680      -0.70998609      -0.11571575      -0.60027137       0.34964829      -0.52932998       0.40081066      -1.03836770      -0.24432539      -0.47914363      -0.39631112      -1.48858604       2.76161091      -1.09532809      -0.76052981      -5.14133600
C       -1.42965961      -0.17199013       0.77361262      -1.45340586      -2.53883910       1.32645667      -0.08103447      -1.37243359      -0.49952248      -0.07157511      -0.76618256      -0.82474176       0.61526986      -0.02034176       0.54963824      -0.80557834      -1.29937882      -2.39952941       1.36115220      -5.31787323
C        4.07798529       1.56882191       0.35085368       1.12825429      -0.44284052      -0.86996317       0.00269485      -0.10898231      -0.09290959      -0.18432908      -0.06355097      -0.04136440      -0.08932907       0.16104992       0.04120309      -0.13669775       1.23113138      -0.41823667      -0.92218227      -5.40736439
C        2.88759756       0.96656966       0.47156203      -1.11083663       0.97828513       2.80679512      -0.05301262       0.13166981       0.08950117       0.29188400      -0.15319053      -0.11025081       0.09965123      -0.20542726      -0.14069122      -0.39678814      -1.22766107       0.95872694       2.78310394      -5.36564253
C        3.34876537       0.93015587      -1.68083370       1.44760954       1.31999254       0.39943215      -0.11849880      -0.82694516      -0.25947523       0.14766668      -0.35751012      -0.25056731       0.09398846       0.29228455       0.11016301      -0.17654214       1.63801166       1.49690824       0.47311033      -5.63120636
N        4.41368437       1.52845287      -1.02245986      -0.52483547      -0.83525473       0.22906835       0.01441517       0.38050507       0.14442304      -0.01693394       0.49254073       0.19299332      -0.08426203      -0.10054595      -0.02143074       0.15212429      -0.62219885      -1.01462189       0.14117680      -5.00149222
N        1.38074374      -2.14144135       0.71150517      -0.70562559       0.07491950      -0.74442858       0.14965479       0.35114574      -0.22880068       0.07568296      -0.10575735       0.73592301       0.43245872       0.11461332       0.40235036       0.84109881      -0.73018456       0.07811114      -0.76446617      -4.54699955
N       -0.20600086       0.36737186       0.86307013       0.72031730      -2.12714577       2.63788390       0.09968086       1.12445602       0.34632338      -0.05509380       0.25536385       0.48561398      -0.10293946       0.15503995      -0.09740619       0.43268492       0.52901142      -2.15268815       2.57689825      -4.77629398
N       -3.73371935       0.10013604      -0.28973001       2.24813461      -3.54756951       1.79467070       0.09572866       1.24167020      -0.55231141      -0.01674317      -0.57991610       0.90721541      -0.09053115      -0.03158614      -0.02579650       0.24790743       2.22802733      -3.41329998       1.85005437      -4.76645265
N        2.45608282       0.63371980      -0.78058600      -0.20421374      -0.10048196       1.20407939       0.00929512       0.88135364       0.20605452      -0.18075629       0.24474353       0.15008938      -0.11560593      -0.24588065      -0.07642059       0.26769185      -0.28361669      -0.10260251       1.34758278      -5.15604456
C       -6.02851486       0.85054493      -0.27944502       0.14206921      -0.47134715       1.34618950       0.10940032      -0.06052718       0.03840569      -0.00646462       0.00899884      -0.08247662      -0.02720020      -0.00108205      -0.02511945      -0.09938641       0.17263082      -0.44164639       1.33769598      -4.54299598
C        2.23958921      -3.33820534       0.47542357       1.39210176       3.29672003       0.56341511       0.05508244      -0.23197004       0.17618071       0.05876882       0.14310704      -0.37393761      -0.07338537       0.11220298      -0.15124039      -0.12885349       1.40479484       3.28212089       0.57631704      -4.77362412
C        1.98795295       1.07004178       1.81262040       1.55542934      -0.88210845      -1.52812648       0.06844977      -0.26468275      -0.10167465      -0.07283369      -0.08231163      -0.09813310      -0.03428571       0.04490846       0.07202708      -0.04290877       1.62313093      -0.93293402      -1.48132921      -4.69794332
C       -1.69844508      -0.37311834      -1.72653055      -2.69769311      -1.50446057      -0.68384385       0.05694184       0.23119532       0.06339875      -0.03382472       0.01109987      -0.09005086      -0.03174346       0.00329122      -0.05299489      -0.04174554      -2.59652872      -1.49187329      -0.81352183      -4.60737163
C        0.83414286       0.05068946       1.86795449      -1.03605902      -0.20339829       0.36375794      -0.02855372      -0.48496355      -0.00145393      -0.20679231      -0.09822597      -0.07815208      -0.02388603      -0.17822058       0.03077014      -0.24568404      -1.01347540      -0.24703983       0.29600021      -5.11364471
C       -2.28308654       0.29838794      -0.38812149       0.82883334       0.73079818      -1.94069469      -0.01972016      -0.68695506       0.01658943       0.02850851      -0.01485164      -0.15757228      -0.11603186       0.13763748      -0.12405719      -0.12985485       0.83567085       0.68691625      -1.88069867      -5.06613198
H        4.69114065       1.97628140       1.14129436       0.16039394      -0.06135143      -0.44991142      -0.07463950      -0.01135207       0.02822044       0.00349562      -0.00129640      -0.07128331       0.00844754      -0.03649976      -0.00761101      -0.04303494       0.07295025      -0.06151725      -0.46729084      -4.19892651
H        3.18187451       0.94139576      -2.74762368       0.15640798      -0.40573272       0.18968590      -0.06498749      -0.03634047       0.00553940      -0.00959955      -0.03381482      -0.08032857       0.01326987      -0.00769704      -0.00115815      -0.05780036       0.16557200      -0.39590205       0.23333709      -4.24613600
H        5.38094711       1.60554552      -1.36688018      -1.14599264       0.14118080       0.05666105      -0.21574035      -0.43675505      -0.05634920       0.09971406      -0.19269270      -0.27955309       0.05421804       0.04162567       0.00513932      -0.25705902      -1.16396123       0.15807790       0.04649660      -3.66365305
H        0.84066373      -1.81987953      -0.06707066      -0.31632003       0.06936466      -0.29543102      -0.18338756      -0.22736090       0.04679274      -0.04330557       0.06138620      -0.24577946       0.06038194      -0.02492099       0.01259764      -0.31514981      -0.31175475       0.04190251      -0.23733375      -3.74318086
H       -0.03393960       1.07640278       0.26292402       0.62203693       2.56274223      -2.30408216      -0.16940251      -0.19009402      -0.00570607       0.07276843      -0.00390632      -0.24997511       0.00613048       0.06390367       0.04664112      -0.47350274       0.64845633       2.55136597      -2.30068713      -3.63008152
H       -4.08046150      -0.71024865       0.29435021       0.84292114       1.24690890      -1.29909694      -0.20785953      -0.16350018      -0.02122806      -0.01955259      -0.00790963      -0.25600693       0.04662777      -0.01367809       0.02148376      -0.23470989       0.83890855       1.22273906      -1.29555736      -3.58293056
H        1.43339801       0.52905917      -0.92461950      -0.38681871      -0.06266613      -1.53550482      -0.11641958      -0.77468905      -0.07499284      -0.05657272      -0.01411835      -0.22561864       0.01651946      -0.21645101      -0.05394293      -0.27470581      -0.28268123      -0.09197043      -1.53783936      -3.87051869
H       -6.41593552      -0.21111077      -0.38529253       0.84299964       1.31977880       0.12625502      -0.04787281      -0.04363315       0.05364314      -0.00062384       0.04919132       0.10643223       0.01074268       0.06206595       0.00516347      -0.02116509       0.80839295       1.32856401       0.13031791      -4.00831331
H       -6.39882135       1.31114244       0.66910279       0.12228564      -0.45235434      -0.81276852      -0.04677456       0.14493929      -0.01724831      -0.03605403      -0.08326510       0.00437107       0.04808080      -0.10345022       0.04169300       0.05685914       0.12421959      -0.45739672      -0.80160773      -3.97934253
H       -6.32745457       1.46875262      -1.08546734      -1.03963470       0.36953741      -0.73113459      -0.04786728       0.07627069       0.01372502       0.00379545      -0.04111385       0.01065197      -0.04733827       0.00882643      -0.01637522       0.01939726      -1.09369206       0.37133321      -0.75791631      -3.91799387
H        3.22523022      -3.03512621       0.88284469      -0.41156614      -0.43844700      -0.06514059      -0.02746715       0.05628319      -0.02833131       0.02679207       0.01416414       0.01641756      -0.01666619       0.00419669       0.04752824      -0.05918122      -0.40583833      -0.47479381      -0.12098682      -3.89171921
H        2.42149568      -3.53376079      -0.56901193      -0.68987530      -0.00084261      -0.28741804      -0.05481661       0.01711479      -0.06917749      -0.02208289      -0.00999723      -0.01817045       0.03063509      -0.03440816       0.07424205       0.05177204      -0.65270173      -0.00086989      -0.28669287      -3.99891162
H        1.90747452      -4.14164019       1.03618073      -0.71767384      -1.70127606       0.76887769      -0.05441100      -0.02530236       0.03591263      -0.01908866      -0.01076177       0.05406351      -0.00365958      -0.02579782      -0.04339714      -0.01016342      -0.73604156      -1.70449882       0.77819056      -3.98712689
H        2.62082624       0.95453799       2.73671794      -0.45927003      -0.18159981      -1.27676773      -0.05383373       0.05777544       0.02896206       0.02510094       0.00527515      -0.02319676      -0.03178814       0.10073252       0.02017235       0.12329084      -0.46399502      -0.13985213      -1.26546481      -4.01825739
H        1.67749548       2.10811257       1.79514194      -0.63153648      -0.03109503       0.14585540      -0.06253002      -0.01694542      -0.02633316      -0.01954235       0.02859894       0.10752377       0.02007292       0.01713874       0.01277921      -0.00309183      -0.61165255       0.00998768       0.13005759      -4.01819812
H       -1.92476749      -1.45415318      -1.76110828       0.42571869       0.23913798       0.66282445      -0.05113347       0.01411035       0.04071111      -0.01672452      -0.00671428       0.11300656      -0.00165915      -0.00719151       0.04090111       0.00672594       0.42019790       0.20851138       0.67660221      -3.97761751
H       -2.28260255      -0.11311346      -2.63675547       0.10583613       0.73069906       0.79340506      -0.05135560       0.01403643      -0.01440787       0.09098594       0.03462140      -0.01276354       0.02580107       0.11157748      -0.01642683       0.12308350       0.12006060       0.71838951       0.79182701      -3.96577897
H        0.37488425       0.19266015       2.84772086       0.07696889      -0.33419940       0.02389404      -0.06066553       0.02159223      -0.01132857      -0.06231654       0.01600706       0.02232973       0.05213281       0.00862819       0.00664825       0.08750264       0.08260935      -0.31368100       0.04547756      -4.01710306
H       -2.11547446       1.38297594      -0.49804837      -0.26567936      -0.55109221      -0.05114616      -0.03556201      -0.23304339       0.08631605       0.01076694       0.16264018       0.03299086       0.01978061       0.00774437       0.00899807       0.01915868      -0.31541153      -0.50380023      -0.04793967      -3.95682603
51
Properties=species:S:1:pos:R:3:original_dataset_forces:R:3:LES_q:R:1:LES_BEC:R:9:forces:R:3:energies:R:1 original_dataset_energy=-221.80795288085938 energy=-221.7423003029904 stress="-inf -inf -inf -inf -inf -inf -inf -inf inf" pbc="F F F"
O        1.93019938       2.14683962       1.00847423      -0.80863231      -0.21788147       0.73130369       0.24658793       0.81479538       0.00154888       0.19910070      -0.11992176       1.33895479      -0.37027205       0.14182013      -0.27695340       0.51466104      -0.86139511      -0.09273647       0.80970224      -4.77201019
O       -3.15476966      -2.07743979       0.38167596       0.93260461       0.36236918      -1.12039256       0.30926305       0.82187531       0.03138074      -0.04743899       0.01407890       0.92690710      -0.16739168      -0.02275895      -0.46713814       1.31800831       1.02831590       0.45132417      -1.31315999      -4.60553854
O        0.95210963      -3.16880035      -1.18406582      -0.55728996      -1.79582214      -0.68570065       0.25683099       0.76646092      -0.04394059       0.00873958       0.31712708       1.28766223      -0.04488106       0.05147355      -0.30913981       0.42044696      -0.58196001      -1.82159787      -0.58220729      -4.76279028
O        1.31432080       1.37141812      -1.73378897       2.55575371       0.49578667      -1.01532197       0.25282174       1.06551614       0.18420515      -0.34149212      -0.05245699       0.92245024       0.02498987      -0.39276006      -0.14728447       0.61477733       2.57594594       0.50097136      -0.99380618      -4.63207070
O       -3.30918002      -0.38283497      -1.06361771       0.43317962       0.15132627      -0.09006159       0.35761622       0.90078709      -0.23231179       0.08671838      -0.18419837       1.37429228      -0.31639377       0.10023166      -0.09542526       0.81479476       0.46381265       0.11840521      -0.09191277      -4.57961261
C        1.52649617       3.24794769       0.67284799       1.55662644       0.28401649      -1.86829805      -0.07872933      -1.36800165      -0.01800715      -0.72612757       0.19818471      -1.36331966       0.34026481      -0.66831344       0.39752441      -0.61307857       1.66107419       0.12448029      -1.83232076      -5.20505627
C       -2.92803860      -1.52961874      -0.77254003      -1.44495487       0.78453362       1.52793002      -0.08198205      -0.51883569       0.37151733       0.20567502       0.38852379      -1.65700460       0.53696608       0.18788240       0.57173937      -1.44716831      -1.65825745       0.67629831       1.87675365      -4.97246077
C        1.09359145      -2.00246787      -1.48064089      -0.13633803      -0.17441066       3.23849893      -0.10866831      -1.13291733      -0.37555350      -0.25679171      -0.40523803      -1.63467691       0.01418986      -0.35554036       0.13664577      -0.24453069      -0.15512515      -0.01356696       3.14717135      -5.17966851
C        0.29459190       1.16949904      -1.13085556       1.12345147       2.74957728       0.18028674      -0.08276904      -1.11441131      -0.47917069       0.46225501      -0.37306452      -1.27097573      -0.07739259       0.49287526      -0.05078027      -0.47240117       1.11411938       2.59754076       0.08479225      -5.27939840
C       -0.36163390      -1.97212255       1.84010935       3.20843601       2.20775723       0.10971023      -0.08460948      -1.40055974       0.22353132      -0.70241540       0.05428537      -1.62339055      -0.14399696      -0.57985587      -0.07235844      -0.46961611       3.27211587       2.37532080       0.09022601      -5.40287997
N       -0.84568685      -3.01750708       1.39217567      -5.00009441      -3.05009913      -2.28109455       0.13233347       0.73869173       0.26350065       0.25756635       0.29104142       1.25317046      -0.01897634       0.36359994       0.26825472       0.33010621      -5.04694966      -3.23814089      -2.23675227      -3.85967092
N        2.17931056      -1.33908260      -1.06459188       0.65713388       0.35714364      -0.74786377       0.16228461       0.78736256       0.36800868       0.26330623       0.02505755       0.74438516       0.05493548       0.28024138       0.14789649       0.35463632       0.55835082       0.28533815      -0.78159597      -4.54708272
N       -0.94321775      -0.82391608       1.65697050      -1.88217497       1.33223438      -0.41064233       0.09634639       0.55212343      -0.30138013       0.25961296      -0.26129480       1.16186612       0.13699825       0.21024737       0.00939430       0.30179445      -1.87141558       1.03162283      -0.54531992      -4.59441280
N       -0.29974285       0.04757571      -1.14499903      -2.13583493      -3.41932631       0.71910620       0.08087847       0.52837319       0.22546177      -0.05382578       0.33946996       1.00530800       0.13176467      -0.01783141       0.24299788       0.30165517      -2.13846604      -3.43278100       0.68963269      -4.77954592
N        0.41668671       3.44575882      -0.09221756      -0.19937477       0.45762098      -0.26990950       0.12932494       1.12653624       0.23842839       0.43757237       0.16602737       0.73248709       0.04021594       0.43281672      -0.19120163       0.54533062      -0.17809319       0.57053845      -0.32119706      -4.68177199
N        0.87014514      -2.07385826       2.28146267       2.95835090       1.78092432       1.77720559       0.14473820       0.94790344      -0.25928506       0.54680604      -0.04179787       0.42153549      -0.01979069       0.26825625       0.05353455       0.26542332       2.83360399       1.68006767       1.71031717      -3.89971846
C        2.48760176       4.45066500       0.74701571      -0.88863766      -0.45911026      -0.62671489       0.11050765       0.03847904       0.15643879       0.02751880       0.04866636       0.02775349      -0.00813540       0.02839381       0.01156004      -0.10387663      -0.90922466      -0.50118928      -0.59865838      -4.66339179
C        3.38053775      -1.99923742      -0.48595089      -2.41365457       0.33325580       1.06397951       0.04890250      -0.32791413       0.08340474      -0.07509808       0.34759551      -0.27172256       0.01296716       0.01222197      -0.00921969      -0.29263601      -2.30968816       0.35387736       1.06428151      -4.64547734
C       -2.19546318      -2.32270408      -1.79200494       0.72400963      -2.48056579      -0.92186344       0.06352520      -0.05748197      -0.04429681      -0.02708561      -0.06040930       0.08269755       0.13674728      -0.19914745       0.02036320      -0.07017857       0.72347075      -2.49057521      -1.02182964      -4.80866140
C       -0.55715275       0.40511668       2.30556393       0.67649871       0.34976226       1.47526765       0.01161904      -0.20513331      -0.08383514      -0.10242921      -0.09699963      -0.60434255      -0.01224506      -0.02755014      -0.09728907      -0.20703647       0.56601891       0.50145434       1.45934763      -4.76315525
C       -1.43770099       1.54939067       1.94037962      -1.71756911       0.52229583      -1.99449253       0.10311610      -0.12560828       0.04803770      -0.00438718       0.00080585      -0.10047688       0.05020885      -0.07002514       0.04138321      -0.06677295      -1.74973499       0.49971778      -2.20220388      -4.54758350
C       -1.23317719      -1.58893239      -2.71070528       0.61435354      -1.30024922       1.27175534       0.10593151      -0.11863846       0.01659970       0.01383728      -0.06674245      -0.08179916       0.01971532       0.08535986       0.09888380       0.01531789       0.71862301      -1.26736291       1.15571354      -4.68994323
C       -1.59098673       2.15856171       0.45290995      -0.53866577       0.65710896       0.44573724       0.09682018      -0.05238409      -0.07631224       0.02003362      -0.12430558       0.04891591       0.01175611       0.01807557      -0.03000614      -0.16595887      -0.51277953       0.75204108       0.59161449      -4.47381555
C        0.03820437      -1.08255172      -1.99893761      -1.73679423       0.68809336      -1.17607462      -0.01847012      -0.16751522      -0.00463580      -0.04563368       0.00368329      -0.32440826      -0.29797675      -0.01050948      -0.24044694      -0.32584469      -1.68928481       0.55229790      -1.22391994      -4.97560285
C       -0.45992088       2.34544992      -0.56239599      -0.05168975       1.27464592       0.83369756      -0.02029905      -0.38924131      -0.34740489      -0.05034594      -0.23249525      -0.54318117      -0.06406983      -0.08140280      -0.12924330      -0.23449338      -0.13477857       1.18419567       0.88917042      -5.04574023
H       -1.68885875      -2.77475405       0.83553076      -0.77434760      -1.13491106       0.01252245      -0.11101025      -0.57274114       0.22962759      -0.18569383       0.30299161      -0.09988860       0.01511930      -0.12683389       0.03746703      -0.19298460      -0.71735895      -1.02469227       0.09215468      -3.63168806
H       -0.31407961      -3.78712463       1.13461840       0.98814374      -1.29300106      -0.34724617      -0.17997617      -0.22881348      -0.05247729       0.05563324      -0.04994124      -0.46369669       0.04384368       0.00610276      -0.07886615      -0.21328427       1.02085653      -1.23605849      -0.35743361      -3.55279883
H        2.11332560      -0.33200195      -1.22715127       0.89045727      -0.21605568       0.08525269      -0.15717036      -0.18986076       0.07191559       0.00227099       0.13944923      -0.49191091       0.09166098       0.03221932       0.05926197      -0.19657242       0.97031340      -0.21099805       0.15458497      -3.75416009
H       -1.90824628      -0.91506124       1.26119506       0.60825604       0.15421112       0.46439785      -0.16598876      -0.44670425      -0.10228066      -0.19768925      -0.26210133      -0.38009636      -0.03663824      -0.17759961      -0.08840166      -0.28858136       0.61173363       0.26295336       0.46309198      -3.68561076
H       -1.23735082       0.09029752      -0.79956609      -0.61136085      -0.55102354       0.08337303      -0.16943888      -0.44041321      -0.04743285      -0.05141193      -0.11148789      -0.01946952       0.00518352      -0.02065332       0.03522431      -0.18273219      -0.60212169      -0.44265680       0.21169957      -3.66193759
H        0.19381833       4.41384983      -0.39968890       0.35398886      -1.50607729       0.41871166      -0.21293402      -0.17782859       0.03652697       0.01855832       0.03272368      -0.28091770       0.01007785       0.03025906       0.09341778      -0.20439075       0.33521369      -1.49643177       0.39083931      -3.58684771
H        1.43863750      -2.88365841       1.99972153      -0.51058686       1.08732975       0.42523053      -0.19121046      -0.27368697       0.03754181      -0.01062990       0.10390038      -0.30218910       0.06535237       0.01499426      -0.06267395      -0.19162035      -0.52367978       1.11884213       0.47859985      -3.53904855
H        1.29245710      -1.15646052       2.51103401       0.21005973      -1.47225976      -0.28015527      -0.18534294      -0.24882429       0.01499543      -0.09386707      -0.04802277      -0.20591358      -0.06031289      -0.01788045      -0.01970595      -0.19925712       0.21021710      -1.47807680      -0.25995592      -3.50209760
H        2.63282037       4.87099028      -0.26183444       0.07691746      -0.31967837       0.44458592      -0.04587782      -0.01599458      -0.01289754      -0.00460984       0.00147579      -0.03223269      -0.04546393      -0.02299467      -0.05861919       0.07076635       0.07406788      -0.30932541       0.44484867      -3.97749115
H        3.40732074       4.13749027       1.19576526       0.43238252      -0.26172173      -0.01076245      -0.04566843       0.10461493       0.04042496       0.04896209       0.00948841       0.04409575      -0.00417301       0.03803844      -0.02166643      -0.00105804       0.46539566      -0.25931886      -0.02395434      -3.96037324
H        2.08148479       5.21328735       1.35589290      -0.49568546       0.97082841       0.65516937      -0.05408566      -0.00081676      -0.01537476      -0.01953669      -0.00785798       0.06196677       0.05099754      -0.01170801       0.05646744       0.01358028      -0.50847077       0.99336443       0.65004778      -3.97891764
H        3.46021628      -3.03662014      -0.81480563      -0.53780830       0.09353635       0.22605519      -0.03989805      -0.09694476       0.05069335       0.02000442      -0.10078922       0.08209303      -0.00508398      -0.06410454       0.06052787       0.00612060      -0.56117588       0.12114092       0.23972844      -3.98284741
H        4.19221687      -1.51220632      -0.97900462       0.95077378       0.61449862       0.80392486      -0.05649957       0.13432522      -0.02869975      -0.00577491      -0.01995012       0.01435886       0.00293390      -0.04034761      -0.02628122      -0.01951899       0.94818897       0.60535881       0.76355239      -3.98122144
H        3.20801306      -1.94796145       0.67515171       1.31842756      -0.03962801      -2.20236397      -0.04469550      -0.00844087      -0.00979941      -0.04133999      -0.05398904       0.00692206      -0.00324906       0.01329726       0.00328720       0.15224131       1.31994433      -0.06970029      -2.23351938      -3.93518995
H       -1.59361279      -3.07887745      -1.27077568      -0.51014990      -0.14725947      -0.24422079      -0.04452731      -0.00017699      -0.04890112       0.01741971      -0.02614773       0.03942266      -0.04820679       0.01194407      -0.01248104       0.04075894      -0.45109623      -0.16083501      -0.21952039      -3.95020315
H       -2.96405077      -2.84695911      -2.42049170       0.61862695       0.33711165       0.67429817      -0.05166208       0.06272467       0.06409165       0.02540527       0.07678117       0.05957601       0.04391731       0.04959138       0.04844096       0.03165765       0.64404616       0.35710254       0.63730877      -3.97632430
H        0.48629743       0.80027986       2.05956674      -0.93942952      -1.31080675       0.64376414      -0.03553944       0.02499195      -0.07668624       0.10983101      -0.05660601       0.01186010      -0.00303619       0.04078928       0.06114417      -0.07983597      -0.86942931      -1.31846591       0.69396597      -4.03221665
H       -0.82099545       0.21416438       3.41357732       1.29973817       0.68493301      -1.31399727      -0.05568342      -0.02820510       0.00310215      -0.01408492      -0.00135578       0.00298888      -0.00231537       0.00368061       0.00344912       0.13657768       1.37973715       0.70624913      -1.32943870      -3.90562769
H       -1.26630318       2.36876535       2.64513612       0.05010632      -0.25383881      -0.25849608      -0.06449021      -0.02334430      -0.03907314       0.01871959      -0.00513408       0.05323753       0.02829032       0.03030706       0.06687022       0.06982012      -0.00466512      -0.19287576      -0.22570834      -3.97394006
H       -2.46234989       1.19529450       2.04185557      -0.17704810       0.20439190       0.65774387      -0.05440471       0.08898140       0.02538476      -0.03618228      -0.00131609      -0.00537966      -0.02640803       0.00609631      -0.05955658      -0.02921379      -0.15806410       0.18910896       0.67804743      -3.88533574
H       -1.82684898      -0.82501608      -3.10082126      -0.26720342       1.93867421      -0.63112473      -0.04996352       0.01303991      -0.06225011       0.03541304      -0.06283861       0.00083524      -0.10013540       0.05892477      -0.00520621      -0.02579812      -0.25270616       1.95038870      -0.65617360      -3.91038258
H       -0.87278169      -2.13722467      -3.58006048      -0.31972447      -0.60432750       0.27052778      -0.05916716       0.05824998       0.01937828      -0.05126423       0.02577467       0.01854768       0.03964864      -0.09548108      -0.02663001       0.00523344      -0.34176535      -0.59709683       0.26866690      -3.95855493
H       -1.91745925       3.17163086       0.70975101       0.34262684       0.11168554      -0.16822611      -0.05061897       0.01118934      -0.06518320      -0.02060850      -0.03439993       0.10673676       0.00552338      -0.05663042       0.06388498       0.05272232       0.30999357       0.06379937      -0.13361193      -3.85481555
H       -2.50380135       1.87302768      -0.08779478       0.39998993      -1.12037909       0.41938692      -0.05021415       0.07799925       0.01247402       0.01814499      -0.02084419      -0.05604879      -0.02446419       0.04417915      -0.01617138       0.04351686       0.42125675      -1.12056215       0.43664784      -3.96170803
H        0.56593877      -0.74051988      -2.82198000       1.04802263       1.72880161      -1.61555898      -0.04997816       0.02342649       0.00069226       0.02028123      -0.00696829      -0.01794285      -0.01717495      -0.02157772       0.02002823       0.05143806       0.95196079       1.69197727      -1.58571024      -3.80754822
H       -0.86293679       2.66821909      -1.53709805      -0.37327486       0.41644090       0.62142444      -0.05723376       0.04299091       0.00827719      -0.01362166       0.00154276      -0.00004279       0.00391575       0.02758683      -0.01690270       0.06705434      -0.39069079       0.45926727       0.59740300      -3.89496953
42
Properties=species:S:1:pos:R:3:original_dataset_forces:R:3:LES_q:R:1:LES_BEC:R:9:forces:R:3:energies:R:1 original_dataset_energy=-189.84376525878906 energy=-189.83496634340457 stress="inf -inf -inf -inf inf inf -inf inf inf" pbc="F F F"
O       -3.86444235       0.53705102      -2.96977901      -0.13091300       1.96153331       0.48436955       0.28435427       0.95867942      -0.21326264       0.35311033      -0.41320118       1.15781703      -0.11180357       0.28064402      -0.00390326       0.47876119      -0.09307196       1.92353737       0.54263605      -4.66413623
O       -0.21811534       2.85849714       1.03054261      -2.56650186      -0.50731570      -2.18228555       0.29731357       0.88684743       0.02355220       0.07346494      -0.10432560       0.86305185      -0.29875338       0.34315134      -0.14602050       1.29439215      -2.58620668      -0.48441328      -2.16037297      -4.58590936
O        1.82476079      -0.75157607       1.28877640      -1.21139026      -0.53664136       2.42277479       0.28534204       0.85713639       0.06993485      -0.41280216      -0.13441291       0.55340807      -0.31925877      -0.11944297      -0.39933087       1.10033865      -1.16121028      -0.46908060       2.31945533      -4.64249278
O       -0.73317564      -1.88763404      -0.34636241       0.60330313       0.51882988       0.21012269       0.30438182       0.40382047      -0.00851761       0.14237127      -0.04294606       1.33882296       0.18736832       0.19304319       0.06229203       0.77005663       0.61648241       0.51774123       0.25431174      -4.61124376
O        1.44647479       2.84399462       2.34638882       0.89412093      -0.75583583       1.39429820       0.40884164       1.40953538       0.49476713       0.56083003       0.43168763       0.77502824       0.12829891       0.22465525       0.16510589       0.98129532       0.91619137      -0.76917719       1.33848079      -4.31793838
C       -3.37877750      -0.55382824      -2.84985566      -0.58262569      -0.39554432      -1.30897295      -0.05598012      -1.78861384       0.26737043      -0.86848272       0.53188586      -1.26065089       0.17518234      -0.70644010       0.00663237      -0.43748566      -0.66493560      -0.31140143      -1.41767889      -5.34644769
C        0.34603554       2.38200092       2.03172183       2.28618002       0.30030853       0.32767761      -0.07787621      -1.56819102      -0.56390897      -0.82586090      -0.37362593      -0.82516410       0.45810457      -0.69835302       0.26822783      -1.33235251       2.23016126       0.24629246       0.40611388      -5.07001375
C        0.96082807      -0.95375007       2.17714047       2.03485584       0.20012982      -2.24494791      -0.08232655      -0.96115681       0.17718476       0.36751295       0.25295507      -0.78629829       0.76699216       0.21511231       0.78159374      -1.33369563       1.94205040       0.09669479      -2.15990037      -5.30268900
C       -0.77552938      -0.64840186      -0.30536702      -2.02337837      -4.62873507      -3.62311602      -0.07277226      -0.21330328       0.17817798      -0.31984645       0.02654509      -1.63437050      -0.40270108      -0.41347419      -0.29898090      -1.30913506      -2.05494171      -4.54847791      -3.65679389      -5.18569312
C        2.30728006       0.43843907      -1.87781429      -2.72915339       0.36130086      -0.19486365       0.01160335      -0.06148053       0.10083012       0.12244645      -0.08454156      -0.03333385      -0.07384056      -0.10958616      -0.03052702      -0.05895321      -2.79542479       0.36629776      -0.25811664      -5.36143257
C        1.07369208       1.09215152      -1.66719794       2.82833552      -0.98236799      -1.33140504      -0.04262359      -0.29617571      -0.21099088      -0.16812924       0.12323126      -0.18344212      -0.02772451      -0.11906331      -0.13046514      -0.11056297       2.88149249      -1.02342446      -1.47513589      -5.43208924
C        2.68076611       2.17529678      -0.64340633       3.08672547      -0.66797447       1.77972186      -0.12149996      -0.63958607       0.04026640       0.15078403       0.13757776      -0.26828429       0.00511439      -0.21918694      -0.22908005      -0.12570386       2.96537233      -0.74725029       1.75767937      -5.36990668
N        3.31141710       1.04820299      -1.21949816      -1.67515016       2.40875578       0.64850450      -0.00560784       0.34545679      -0.13766562      -0.01099385      -0.09367548       0.13631710      -0.00154340       0.14407690       0.18037650      -0.00732325      -1.61398417       2.52014389       0.74880578      -5.03061336
N        1.10347998      -1.82992947       3.21609259       0.52343804       1.00114477      -0.63963330       0.09585286       0.44916104      -0.20352495       0.12163496      -0.12409956       0.61306829      -0.63535169      -0.01222106      -0.43074545       0.73050875       0.55585447       0.94984748      -0.62185257      -4.71700469
N       -0.69272965       0.08216435       0.71776289       0.50456935       3.78234577       3.58250833       0.06149297       0.18703953      -0.03234472       0.12015016       0.02431595       0.76161801       0.28095305       0.19742037       0.45892250       1.06245001       0.51664097       3.65164737       3.59402487      -4.86333912
N       -2.17547941      -0.83123255      -2.36489534       2.84350228       2.46855640       1.99910343       0.12689772       1.41173897      -0.08772867       0.60070727       0.01695874       0.48305747      -0.02775490       0.56778545      -0.03790446       0.56073335       2.97821692       2.51653976       2.07549936      -4.68445166
N        1.41880202       2.24381208      -0.98027664       0.75389957      -1.96887016      -0.18227941      -0.00442709       0.71593091       0.08701145      -0.20326145      -0.22597281       0.23247665       0.17069861      -0.00148403       0.10137966       0.17066474       0.75453575      -1.95619655      -0.08398134      -5.19838346
C       -4.17031574      -1.73073637      -3.30190349       0.45001161      -0.15479504      -1.60344958       0.10385861      -0.00152929       0.09135591       0.04106165       0.06307560       0.09003102       0.01983665       0.07318006       0.04601234      -0.11975060       0.47883834      -0.17649405      -1.59601698      -4.46438981
C        2.39106035      -2.33841586       3.57836151       2.37444997      -0.26816836      -0.95026886       0.07241175      -0.41112008       0.08470670      -0.06200040       0.07123896      -0.19545836      -0.01107205      -0.13860528       0.04986047      -0.20410133       2.36199557      -0.24281436      -0.94331254      -4.67997288
C       -0.28065223       1.20803761       2.80659056      -0.42584020      -0.70657867       0.79790193       0.06765699      -0.00200331       0.09898845      -0.00800643       0.09492213       0.11223549      -0.00221622      -0.03927402      -0.20751962      -0.15467498      -0.42059124      -0.69838960       0.72203909      -4.70017277
C       -0.17535767       0.68842268      -2.35985041      -0.94368875       2.34194708      -1.98030818       0.02552532      -0.17155143      -0.00865921       0.12594889       0.01246184      -0.13921987      -0.00274850       0.04181808      -0.01259387      -0.10107739      -1.01509808       2.21485181      -1.85883050      -4.85748010
C       -0.34076110      -0.20361140       2.10792994       1.51136279       1.53502285      -1.29110980      -0.03763687      -0.03938078      -0.05887662      -0.10176298      -0.07192051      -0.24779560      -0.01643011      -0.10433384      -0.03800913      -0.65473915       1.42556116       1.58233876      -1.21564210      -5.12032932
C       -1.29450107       0.09883946      -1.56158662      -1.70085597      -0.05415625       1.53999639      -0.00906475      -0.43653303      -0.19894856      -0.15955420      -0.19211363      -0.15069797      -0.18027129      -0.07762123      -0.17444885      -0.26686210      -1.63660343      -0.01974664       1.60082635      -4.91952909
H        2.43073988      -0.36187905      -2.55112100       0.32740587      -0.81842953      -0.28929934      -0.07297778      -0.02252654      -0.01056898      -0.00095141       0.00909184      -0.03552116       0.02015115       0.02334514       0.03369315      -0.06470126       0.36878058      -0.87526306      -0.25635039      -4.17801166
H        3.03337049       2.68891191       0.29368579      -0.13076565      -0.27571577      -1.49535036      -0.05464556      -0.07401387      -0.01205201       0.04581708       0.06756910       0.00976089      -0.00033167       0.09419957       0.03978026      -0.08910513      -0.12098351      -0.29946625      -1.52766629      -4.22970472
H        4.29797316       0.76616061      -1.29986477      -0.97755337       0.65152007       0.58912343      -0.21849179      -0.37430736       0.02079529      -0.01226603       0.05602702      -0.22659250      -0.01386517      -0.01872956      -0.01334371      -0.21745810      -0.91624895       0.60408985       0.52253122      -3.65762212
H        0.31817198      -2.16371369       3.73295307      -0.32106537       0.25771585       0.05952389      -0.21357442      -0.23823622      -0.03027403       0.03897940       0.00260026      -0.23671194       0.03266920       0.00768888       0.04334698      -0.28306022      -0.33651962       0.28751817       0.06652742      -3.58581185
H       -0.69657898       1.10114634       0.53072995      -0.22226609      -0.45197099       0.43669885      -0.16232339      -0.20242279      -0.04935979       0.03261829      -0.08042848      -0.68790813      -0.07468112       0.02965075      -0.03341714      -0.01453200      -0.16485168      -0.41748661       0.38395626      -3.66969448
H       -1.77229404      -1.72390366      -2.32268739      -0.07830504      -1.51740706       0.08734278      -0.19377773      -0.23764767       0.01325679      -0.06624694      -0.00266474      -0.26228381      -0.04224049      -0.08084476      -0.03866298      -0.31651940      -0.09602534      -1.49763931       0.05336475      -3.62429002
H        0.83747113       2.79681492      -0.37035665      -1.40653527       0.74017179       0.92962760      -0.14553934      -0.40555814       0.17367916       0.28156201       0.07326404      -0.29083531      -0.06651096       0.34754949      -0.01233430      -0.59680126      -1.48677588       0.81426334       0.96536977      -3.86010916
H       -3.48050451      -2.55021596      -3.48475242      -0.35079920      -0.62295252       0.72517323      -0.04774309       0.03833200      -0.04140274       0.01111327      -0.05894350       0.05457089      -0.00516744      -0.01776890       0.02375405      -0.02177562      -0.35841544      -0.64071910       0.71441457      -3.94330117
H       -4.55758715      -1.54931903      -4.36317253      -0.24623048       0.11898520       1.97284400      -0.04131403       0.05073454       0.03038452       0.08499010      -0.00434140      -0.00443435      -0.00841813       0.16859438       0.04327082       0.18636856      -0.25055571       0.12299731       1.97921821      -3.94284481
H       -4.85804224      -1.80590093      -2.44742322      -0.32349715      -0.82913804      -0.94973212      -0.05216381       0.08718477       0.06507016       0.00920528       0.03243784       0.00971831       0.02407083      -0.11815922      -0.03451118      -0.01296505      -0.35336403      -0.83510851      -0.94971093      -3.97047341
H        2.37274647      -2.73659086       4.55808353      -0.41015512      -0.37411156       1.09732449      -0.05515383       0.03462253      -0.03447139       0.04791097      -0.03207385       0.01243526      -0.05484404       0.08686008      -0.10109007       0.14707345      -0.40019226      -0.36222758       1.09448421      -3.95756559
H        2.71583366      -3.21751595       2.93325233      -0.20112261       1.35709703       0.45163032      -0.04685553       0.03606001      -0.03869772       0.01054261      -0.06024932       0.05585365       0.01838647      -0.04011759       0.07256759      -0.02826328      -0.21219671       1.35372830       0.42820885      -3.96284819
H        3.22837114      -1.53641653       3.64598417      -1.63404143      -1.22877967      -0.67318040      -0.04064873       0.10090650       0.01103391       0.04787226       0.10545525      -0.00734065       0.07779482       0.00242167       0.00052246      -0.02465729      -1.62766063      -1.25016038      -0.66336551      -3.93850584
H       -1.32617235       1.46278381       2.96728277      -0.06296530       0.12688036       0.08771722      -0.05180039       0.09915854      -0.03222816      -0.07811149      -0.00732859       0.00972636      -0.01086184      -0.01843224       0.00806805       0.02389773      -0.05560113       0.13169731       0.09864828      -3.97209584
H        0.18737030       1.08887184       3.79919243      -0.09022382       0.17090191      -0.60204357      -0.05389320      -0.00326426      -0.00173160       0.02608042       0.02074039       0.01704952      -0.03919391       0.03395414      -0.00116756       0.12406767      -0.08165500       0.18877446      -0.59103421      -4.02028399
H       -0.69282389       1.61948490      -2.77910709       1.15680516      -1.08743382       0.02712962      -0.05411958       0.02486338      -0.03475963       0.00321179      -0.04519385       0.05572338      -0.04849181       0.02274457      -0.06556797       0.05912919       1.15349776      -1.05284741      -0.00081646      -3.92380380
H        0.09431377       0.05797970      -3.23110104      -0.17936008       0.26048234       0.69869518      -0.05837686       0.01379746       0.00090003      -0.00440767      -0.01595472       0.00771799       0.05782994      -0.04585956       0.04968572       0.09030492      -0.15922942       0.29717652       0.65571071      -3.98879872
H       -1.00883055      -0.83733100       2.59485269      -1.83798027      -0.66515571       0.60519129      -0.06454486       0.01025083       0.03815569      -0.06171211       0.01724725       0.05549885       0.00032326       0.00856816      -0.01010040       0.07445845      -1.76311939      -0.60926831       0.57244720      -3.98093309
H       -1.88828731       0.93283749      -1.05994439       0.28531355      -1.06534278      -1.41500342      -0.05156866       0.02734514      -0.05744744      -0.05552998      -0.00327521       0.07135642       0.05230194      -0.00746583       0.01463205       0.03175555       0.27979084      -1.09912508      -1.45817560      -3.92366859
42
Properties=species:S:1:pos:R:3:original_dataset_forces:R:3:LES_q:R:1:LES_BEC:R:9:forces:R:3:energies:R:1 original_dataset_energy=-191.9521484375 energy=-191.9350389498201 stress="inf -inf -inf -inf inf -inf -inf -inf inf" pbc="F F F"
O        0.05805951      -1.99578738      -4.34276915      -0.02265715       0.99013442       0.07439139       0.28809264       0.36288512      -0.19919067      -0.09668783      -0.19137101       1.31134860       0.31435968      -0.00156424      -0.02891991       0.85727199      -0.03300225       0.97483420       0.07849722      -4.70335870
O        2.21446204      -1.63792610       1.23346055      -0.08057097       0.13946447      -0.23451407       0.34767613       0.73212624      -0.08107828      -0.08434470      -0.26716057       1.09447064       0.30142944      -0.19661856       0.16973949       1.20142977      -0.15612101       0.13683843      -0.23712477      -4.55520338
O       -1.01996136       1.08578146       2.19045877      -0.91565681      -0.37469396       0.06512706       0.24181221       0.98261258       0.59145094       0.05482079       0.32327697       1.02585734       0.37945612      -0.17088274       0.20191191       0.51478933      -0.86419129      -0.32618249       0.05079367      -4.81591604
O       -0.32568485       1.84465921      -1.34473765       0.25475442      -0.47620881       0.41758868       0.27720106       0.50705573      -0.24486483       0.31537514      -0.31986232       1.11812115      -0.31807430       0.24048740      -0.10392446       0.83515123       0.28565108      -0.53861560       0.46136422      -4.70158583
O        1.33463502      -1.29134369       3.24645638       0.02216008       0.33217922       0.27808553       0.37170303       0.70181094       0.17606361      -0.44754641       0.24831685       0.79022556      -0.26043396      -0.25142855      -0.11613710       1.42651622      -0.00875802       0.34215491       0.28431214      -4.53630592
C       -0.17227381      -0.78611392      -4.42031670      -0.12285186      -1.12969267      -0.86899656      -0.07348406      -0.14472702       0.33699822       0.16972980       0.30370344      -1.62250743      -0.59890058       0.06885638      -0.35181851      -1.65208519      -0.12058590      -1.08266698      -0.85768461      -5.34567940
C        1.91063595      -0.90050554       2.21612740      -0.35523343      -0.30284116       0.05091708      -0.06031252      -0.41690138      -0.12712310       0.80305823      -0.14655000      -1.24234288      -0.18085960       0.67073612      -0.09706503      -1.86713468      -0.32227122      -0.27661142       0.00570249      -5.04781902
C       -0.02688324       1.76763904       2.10860395       0.76873165      -0.41782343      -0.71783328      -0.08773336      -1.09592353      -0.56532610       0.11082319      -0.44213974      -1.39871500      -0.70447439       0.23889886      -0.65938433      -0.71698790       0.66250647      -0.42789109      -0.70540602      -5.41370242
C        0.10919887       0.73922908      -1.01771259      -0.09390119       1.11082065      -0.25267971      -0.08519115      -0.51154999       0.39307746      -0.77238068       0.41323133      -1.27044641       0.30444204      -0.61705248       0.08680296      -1.27621354      -0.17821554       1.19619829      -0.33736862      -5.35945537
C       -1.73735309      -1.53260636       1.01380110       0.16098870       1.01982522      -0.62396741       0.01910550      -0.08291410       0.11892899      -0.09813255       0.10649872      -0.12250090       0.07300007       0.07921648      -0.10921371      -0.02270313       0.14282393       1.05573901      -0.56301610      -5.27578171
C       -1.18339837      -1.95030224      -0.18125699      -0.67823029       1.18031466       1.02316523      -0.03934345      -0.07120160       0.15456213       0.01638706       0.06423700      -0.30241736       0.00259408      -0.14715676       0.19724052      -0.34054748      -0.58446204       1.15467217       1.04027037      -5.55046072
C       -0.23319668      -3.07212400       1.47841978       0.74958020       1.10039711       0.53079665      -0.11365218      -0.20759978       0.11989604       0.08169370       0.01020531      -0.33944763      -0.08709506       0.15404618      -0.10545317      -0.47897660       0.80600334       1.03764806       0.61233273      -5.57000436
N       -1.10171330      -2.22038960       2.06362605       0.15859516      -0.35810301      -2.08575344       0.00408594       0.14327066      -0.22428470      -0.08077413      -0.09973448       0.25185294       0.01789972      -0.05819514       0.23290786       0.30317574       0.11496132      -0.34454345      -2.13959965      -5.08006207
N        0.17177713       2.88328695       2.82910466      -0.09269714       0.42204046       0.11006919       0.10842928       0.44260915      -0.04964152      -0.21750637       0.18466720       0.91225065       0.46799716      -0.02174871       0.61670274       0.62102869      -0.06748718       0.41866801       0.11850395      -4.73310998
N        0.81780678       0.46741712       0.10171917      -0.46395046      -1.03593266      -0.44937044       0.11250920       0.54706106      -0.20276755       0.51136411      -0.09155569       0.57609487       0.05803111       0.50614063      -0.07498442       1.10394342      -0.42461796      -1.00639473      -0.33537700      -4.82732643
N       -0.36948520      -0.00595450      -3.35353565       0.17838220       1.28879440       1.67020500       0.12214020       0.24992177      -0.06096730      -0.07121983      -0.02227120       0.72998569       0.40703340      -0.12256120       0.41135256       1.47452213       0.18918829       1.27575008       1.65937629      -4.76737381
N       -0.25587672      -2.92692375       0.13576922      -0.39710477      -0.01072938       1.42184651      -0.00456584       0.15318053      -0.07318231      -0.05658873      -0.13174023       0.19723643       0.02540934      -0.13334426      -0.10168759       0.52706304      -0.41238174       0.09111281       1.38684731      -5.12034582
C       -0.31997889      -0.04478323      -5.75208950       0.03240403      -0.98414338      -0.03679163       0.10523093      -0.12109003      -0.03395114       0.04183491      -0.02995348       0.00549384      -0.06226282       0.00245396      -0.07924284       0.06514249       0.02296193      -0.97173868      -0.03597157      -4.63298635
C       -0.83361030       3.44867802       3.71138644      -0.20940122       1.04015207       0.09929320       0.06730971      -0.30493770       0.24018766       0.29373166       0.09714506      -0.19238180      -0.06441747       0.14311834      -0.07686678      -0.26369369      -0.22744541       1.03656903       0.06932067      -4.77122610
C        2.20612860       0.61016023       2.02921605       1.24344099      -0.43958694      -0.63767540       0.07753532      -0.10864886       0.03002751      -0.10266240      -0.03501857       0.17950567      -0.10860890      -0.04996935      -0.00253377      -0.02022678       1.26354911      -0.45692224      -0.64769575      -4.73310346
C       -1.33360243      -1.30309653      -1.53601909      -0.04662139      -0.47266144       0.92902851       0.04612849      -0.16363502      -0.05477982       0.01275381      -0.03129576      -0.05588652      -0.04992108       0.10392442      -0.00418174       0.00460861      -0.05503985      -0.53126449       0.92363255      -4.90563448
C        1.16042876       1.35589087       1.20661259      -0.14581314       0.20842122      -0.38978329      -0.01429335      -0.16877997      -0.04771231      -0.24556098      -0.05937620      -0.28550872      -0.13718236      -0.24850660      -0.19986437      -0.51316080      -0.16306336       0.13186520      -0.38213279      -5.13554165
C       -0.13885868      -0.44154498      -1.97073114       0.37098628      -1.10506296      -0.44389039      -0.02522141      -0.25426499      -0.03817639       0.01977463      -0.01987633      -0.03475737       0.08914628      -0.03023668       0.11553103      -0.53768872       0.37326993      -1.11698495      -0.43178135      -5.09489500
H       -2.38011050      -0.62092525       1.10907769       0.77011871      -1.42108512       0.33720261      -0.06100603      -0.07807053      -0.07505269      -0.02394928      -0.07382064      -0.08509054      -0.01589609      -0.00851756      -0.00916367      -0.04016814       0.77284994      -1.41604487       0.36202339      -4.17602389
H        0.57365185      -3.52580786       2.03895712      -0.30256885      -0.20291713      -0.24817836      -0.05304100      -0.07018772      -0.10678063       0.01790241      -0.04470275      -0.08959710      -0.01226609      -0.00001911      -0.01996803      -0.04100106      -0.32372183      -0.20849635      -0.25745666      -4.23855933
H       -1.02694798      -1.92287934       3.04755878       0.02615693      -0.28743735      -0.88810974      -0.20579641      -0.33299608      -0.04821458       0.01291209      -0.01540758      -0.28763275      -0.02457422      -0.00059615      -0.03718354      -0.38223574       0.01770945      -0.27899999      -0.92305746      -3.68354953
H        1.02324796       3.41633177       2.72660494      -0.22862749      -0.30203655      -0.14517227      -0.21309580      -0.23886350      -0.02762716       0.01220719      -0.04549658      -0.26520534      -0.04521012      -0.00964725      -0.00768364      -0.23059085      -0.23455373      -0.29377049      -0.14021915      -3.57663368
H        1.14158607      -0.52033591       0.23649648      -0.02478592       1.10383296      -0.10953283      -0.15434077      -0.33643767       0.23840257      -0.13086061       0.24108761      -0.41488833       0.24569613      -0.06932320       0.17398939      -0.21992768      -0.02585495       1.05114962      -0.16051628      -3.79380799
H       -0.52776158       0.99254906      -3.46663761       0.07509488      -0.40933973       0.11866082      -0.19513381      -0.19704766       0.01847936      -0.01756034       0.00988820      -0.25246067       0.01282710      -0.03607902       0.01193187      -0.33699378       0.07906550      -0.40642824       0.11005771      -3.62585579
H        0.48156005      -3.28257942      -0.46190786      -0.30823413       0.00825589       0.19054379      -0.21706203      -0.30680159      -0.02824421       0.05320478       0.01796902      -0.29461925      -0.04543242       0.04257297      -0.02713958      -0.31291108      -0.28812306      -0.01407106       0.15607341      -3.64667579
H        0.53459126       0.63959217      -5.86860895      -0.48264042      -0.25548041      -0.23574647      -0.05234541       0.03784570       0.05346633      -0.03994841       0.05442958       0.02898076      -0.02475985      -0.00316892      -0.01742197       0.02862890      -0.48276856      -0.25894691      -0.23975449      -4.01272133
H       -0.39515454      -0.80783767      -6.54857683       0.49671462       0.52742279       0.38305339      -0.04409625      -0.01717345       0.00393704      -0.00038977      -0.00270631       0.02953004       0.01876915       0.00891930       0.03606032       0.12038734       0.49993492       0.52511386       0.38294406      -3.96238779
H       -1.27234650       0.47563076      -5.77637434       0.09331721       0.40614098       0.13474993      -0.04988590       0.05536659      -0.05410092       0.00885775      -0.04427342       0.01409400       0.00117214       0.00092773      -0.01064434      -0.01058910       0.09430496       0.40212925       0.13897772      -3.98418354
H       -1.82241058       2.96364737       3.62843251       0.75957954       0.17796692      -0.37706372      -0.03753114       0.05651016      -0.04406968      -0.06937271       0.06983423      -0.06038273      -0.06669305       0.02648440      -0.04098649      -0.06130461       0.76116118       0.18161991      -0.37279947      -3.98671490
H       -0.91431230       4.54603481       3.46703720      -0.16278647      -1.12424839       0.37594306      -0.04971205       0.01346165      -0.08708625      -0.09458805      -0.04761399       0.11540160       0.03576533      -0.02265254      -0.00554981       0.00515163      -0.16889564      -1.12173578       0.37829734      -3.96106244
H       -0.51968884       3.34336376       4.75032616      -0.02523034       0.09202959       0.00559215      -0.05281499       0.00954785      -0.02679898      -0.01031037      -0.02105240      -0.01623303       0.00727952      -0.02246136       0.03969036       0.11310237      -0.01052348       0.09144020       0.01816293      -3.98522467
H        3.14126658       0.70052719       1.44485354      -0.36660159      -0.25207600       0.38593680      -0.04656860       0.11802416       0.03490618      -0.00476578       0.01477277       0.03092010      -0.00956494      -0.07555030      -0.03160604       0.00885533      -0.35852061      -0.22814580       0.38625849      -3.93724522
H        2.37239146       1.09027314       2.96899152      -0.10218675       0.25594670       0.62721479      -0.05709487      -0.00611452       0.01147092       0.05209204       0.05691097       0.05416612       0.08045734       0.01647277       0.04120982       0.07564508      -0.10030211       0.24027580       0.63291066      -4.01495031
H       -1.53176451      -2.09582949      -2.23190284       0.19813974      -0.11406441      -0.74377471      -0.05174920      -0.00088671       0.03132285       0.04785920       0.02980216       0.03437010       0.03940992       0.03899578       0.04863908       0.02310096       0.20372279      -0.11147182      -0.73783070      -4.00089095
H       -2.18283463      -0.64731765      -1.55080211      -0.59102339       0.12908842       0.29651558      -0.05964323       0.05767877      -0.03851304      -0.00028501      -0.03972822       0.03294342      -0.01059653      -0.01875168      -0.05424707      -0.03091036      -0.57803026       0.11869061       0.30453020      -3.98672878
H        1.64446235       2.26153660       0.81287467      -0.35059464      -0.17402524       0.02134397      -0.05992323       0.02727237       0.02297276       0.01383419       0.02509533       0.08240079       0.01289732       0.01083609      -0.02010904       0.04430040      -0.31626518      -0.14705635       0.00407727      -4.00878169
H        0.72931546      -1.09931433      -1.97199094       0.21595725       0.11964896      -0.05856469      -0.05585689       0.03851233      -0.03661641       0.01521826      -0.04836429       0.01777143      -0.06784853      -0.03705549       0.00927105       0.00223623       0.21553802       0.10251431      -0.06047434      -4.01748854
49
Properties=species:S:1:pos:R:3:original_dataset_forces:R:3:LES_q:R:1:LES_BEC:R:9:forces:R:3:energies:R:1 original_dataset_energy=-214.33584594726562 energy=-214.34139040956953 stress="inf inf inf inf inf -inf inf -inf -inf" pbc="F F F"
O       -3.23197842       0.21528637       3.58626294       0.68528014      -0.84942061       0.09672516       0.30514744       1.16235471      -0.36222246      -0.15496481      -0.48051868       0.54648047       0.00913618       0.14157577      -0.15958939       0.84730422       0.67946788      -0.85163606       0.08448760      -4.62937675
O       -0.83340311      -1.60050929      -2.35381126      -0.29505706      -0.36068282       0.13690194       0.36611611       0.65445612      -0.23809932      -0.36871019      -0.07751632       1.04483833      -0.02187718      -0.26926457       0.11257720       1.52100049      -0.31125648      -0.36010652       0.06941851      -4.50600124
O        1.29241323      -0.80119288       2.10003972      -0.34597787      -0.04443782       0.67987001       0.27145445       1.02892053      -0.26212760       0.38724408      -0.12792967       0.62259439      -0.39988345       0.08359155      -0.31426654       0.94868033      -0.34414651      -0.01994908       0.75168145      -4.73004337
O        3.27490044       0.54164833      -1.76845312       0.25627965       0.29105356       0.00592083       0.27673823       0.85012027       0.31099161      -0.35107986       0.15181493       0.94933939      -0.09101293      -0.56944214      -0.30225301       0.81033426       0.28379554       0.28331957       0.00070588      -4.69747002
O       -1.78568363      -0.22365558      -0.95592457      -1.79030859       2.81744337       1.18774915       0.24185336       0.59649252      -0.24768413      -0.13118385      -0.16381674       1.52010537       0.24966789       0.00231785      -0.08354097       1.04332967      -1.77745718       2.77894326       1.13753342      -4.75091025
C       -2.26459789      -0.38228190       4.07848310      -2.32127905       1.96862471       0.14394823      -0.07454895      -1.62707929       0.67565749       0.50140905       0.73460482      -0.44094160      -0.09101645       0.28371410       0.01939283      -1.32961483      -2.29569762       1.96078014       0.14486911      -5.35693971
C       -1.34179831      -1.32305408      -1.22596550       2.06813335      -2.87411809      -1.44307446      -0.08059411      -0.43648651       0.63880237       0.54157023       0.38213953      -1.74466969      -0.35303900       0.40096363      -0.19302211      -1.50678559       2.05121071      -2.80996265      -1.40125671      -5.13979084
C        0.30282295      -0.30963489       1.56007481       1.11689913      -0.99958819      -0.49438137      -0.09055237      -1.21136297       0.12068408      -0.19714978       0.06534297      -0.77346260       0.95135107      -0.05388611       0.81735750      -1.21993802       1.18500912      -1.02656205      -0.48987697      -5.23599447
C        2.49622679       0.05916023      -0.95288384       0.24629468       2.00070310      -1.13105416      -0.09195653      -0.74217623      -0.40882759       0.56047280      -0.42667925      -1.54394048       0.10326938       0.72308574       0.11324621      -0.77869035       0.27137569       2.12940184      -1.24639020      -5.31214330
N        2.18196869      -1.22032237      -0.95877802      -1.28685188      -1.21824145       1.50728846       0.11054463       0.35417085       0.07146556      -0.16535849       0.20094405       1.16998040       0.01292791      -0.24162471       0.26038819       0.39261082      -1.28516074      -1.28617489       1.55023317      -4.69829970
N       -1.22745728      -0.78482044       3.36413932       1.78885257      -1.05370426      -0.54585975       0.10433132       0.96543234      -0.22776337      -0.52470295      -0.21096358       0.34265403       0.11854004      -0.63803912       0.17557060       1.21308903       1.78854867      -1.09137748      -0.54511046      -4.78746117
N        0.46228766       0.51980025       0.51519674       0.41272309       1.23743677      -0.78332502       0.13712519       0.58946023       0.16573162      -0.24321276       0.00564825       0.72572866      -0.49489263      -0.03777762      -0.41259814       0.86650339       0.26883305       1.17388257      -0.59211893      -4.66539892
C       -2.16700625      -0.51617157       5.57631397       0.48112214      -0.85446006       0.68040746       0.10404093      -0.07864173      -0.04876850       0.04883614      -0.06778121      -0.12725935       0.06622346       0.02142343      -0.01367831       0.13030260       0.47768619      -0.84615108       0.67782470      -4.64001147
C        2.69652987      -2.24441433      -1.84807968       0.23783565       0.12363437      -0.93213934       0.06696516      -0.23369307       0.13932912       0.08801484       0.01337116      -0.35658276      -0.13415799       0.09728028      -0.24221917      -0.27985366       0.25252274       0.15102553      -0.91725609      -4.78543637
C       -1.24922085      -2.45035505      -0.17038444       0.00804048       1.01332057       0.21337612       0.10361923      -0.07950111      -0.04020351       0.01906692      -0.01081833       0.16344405      -0.13161851      -0.01472122      -0.11026225       0.08834424       0.03131966       0.95601046       0.23063991      -4.75912478
C        1.31024051       3.08431792      -1.63816476       0.03864995       1.20221210       0.20838851       0.10225518      -0.19224223      -0.03477730       0.01942917       0.04940814      -0.04902046       0.03184313      -0.07108707      -0.08050324      -0.05806342      -0.01291438       1.16943359       0.22072476      -4.65707032
C       -0.06593934       2.67898488      -2.18775988       0.36270231       0.13269825       0.62575483       0.08889146      -0.06205847      -0.01987280       0.07010650       0.02330267      -0.20755815       0.07762284       0.05241297      -0.03609076      -0.06333908       0.35829117       0.14947756       0.59303488      -4.73619862
C       -1.52574658      -2.10660982       1.30631065       0.02481595      -0.29625425      -0.60172051       0.09684347      -0.04135965       0.04738128      -0.04960569      -0.01345667      -0.17570725      -0.05610807      -0.01837549      -0.04586402      -0.14042029       0.02182599      -0.27012107      -0.59045170      -4.69968020
C        1.77568173       2.54690218      -0.27791405      -0.46110067      -0.53700316      -0.84404147       0.09661357      -0.05439951       0.01697775       0.02259881       0.00616852      -0.16535808       0.05078368       0.06733782       0.12172933      -0.13208298      -0.37866317      -0.62453872      -0.84793649      -4.74892478
C        0.07451773       1.38743663      -2.96311378       0.11496364      -0.10025816       1.18616748       0.01644888      -0.43619867      -0.05702486      -0.20680515      -0.10782261      -0.18499066      -0.14352972      -0.07292391       0.05041370      -0.30712776       0.15464397      -0.12200914       1.20578055      -4.74209172
C       -1.11613929      -0.74662960       1.91425276      -0.41661978       0.31255928      -0.13847885      -0.02926788      -0.07678864      -0.03532237       0.10591213       0.07177768      -0.19998151      -0.15714504       0.14600368      -0.02431431      -0.74380020      -0.43598170       0.37256686      -0.10601207      -5.17001828
C        1.80186558       1.03487635       0.04801011      -0.91774863      -1.04282713       0.59188694      -0.02003207      -0.41966888      -0.16234097       0.09873541      -0.15035740      -0.33471743       0.08352707       0.06634367       0.06411751      -0.12958668      -0.90318097      -1.09286812       0.60037507      -5.01724092
N       -1.26480746       0.83037788      -3.32556844       0.94368124       0.92667603      -1.98826730       0.01231769       0.29509823       0.06406549       0.14992355       0.03306163       0.32436096      -0.03382041       0.11483537      -0.04272984       0.41574711       0.94146840       1.00430999      -2.08831915      -4.31889580
H        1.59065795      -1.53950453      -0.18476203       0.46712300       0.20884380      -0.67728132      -0.18238094      -0.28856179       0.05336245       0.04208956       0.05684127      -0.19876321      -0.00347652       0.10047213      -0.02975899      -0.31548927       0.51860539       0.19519882      -0.68569744      -3.62838101
H       -0.43100780      -1.18824267       3.84215665      -0.20696495       0.05344600      -0.15338443      -0.20295554      -0.25515511       0.00730225      -0.00672407       0.00558201      -0.22925416       0.04668145      -0.00565023       0.04482466      -0.25572602      -0.19519057       0.06544386      -0.17633158      -3.59409089
H       -0.36001492       0.72191578      -0.04145491       0.10459923      -0.06378949       0.15844181      -0.17504674      -0.34812189      -0.06253841      -0.16465076      -0.05810248      -0.24396080      -0.05796238      -0.15527047      -0.08759458      -0.26622023       0.09817496      -0.01487878       0.19499087      -3.76692336
H       -2.90919876       0.12073320       6.05205202      -0.02929204      -0.12305050      -0.23521446      -0.04540711       0.02556291      -0.03736899      -0.04172699      -0.04145399       0.01215119       0.04253061      -0.04576966       0.01352948       0.09027664      -0.03644546      -0.12222479      -0.23198819      -3.96395641
H       -2.32297039      -1.57493806       5.93376541       0.32012662       1.09505141      -0.44201204      -0.04894063      -0.00565846       0.01761566      -0.04046439       0.04351693       0.09899318      -0.12286308      -0.02071769      -0.05210234       0.05648478       0.32143078       1.09223237      -0.43707824      -3.99680856
H       -1.17355800      -0.14902425       5.88104057      -0.29691362      -0.40214226       0.11212722      -0.04763457       0.08925198       0.03233167      -0.00588926       0.02309652      -0.01417520       0.02965894       0.03756352       0.00296939      -0.00492350      -0.29322190      -0.40612955       0.10363642      -3.97179089
H        3.44438457      -1.80908656      -2.56875920      -1.00219095      -0.34785914       0.83368582      -0.03522012       0.05119234      -0.02812197      -0.06247328       0.02485305      -0.04041391      -0.04135634      -0.05241216       0.02108152       0.03590555      -1.00971073      -0.32679506       0.81925301      -3.97232045
H        1.85669017      -2.74378824      -2.38622808       0.60957390       0.58418977       0.28152305      -0.04650879       0.01119524       0.04104475       0.03259728       0.02666326       0.01955515       0.05393621      -0.00563424       0.06961519       0.03604089       0.62204723       0.56238055       0.25875902      -3.99704105
H        3.19607496      -2.99758768      -1.25026858       0.18423350      -0.14329788       0.01828695      -0.05371320       0.02223064      -0.07701620      -0.01224124      -0.03850459       0.04824393       0.00045556      -0.00546178      -0.00683960       0.02195983       0.15640720      -0.15085924       0.02573148      -3.98298175
H       -0.25080836      -2.86974049      -0.19840431       0.13976829      -0.07918371      -0.55105239      -0.05453115       0.08524373      -0.05978693      -0.03174697      -0.02843888       0.03342997      -0.00904416      -0.02176615      -0.02469346       0.01498452       0.09871171      -0.08116844      -0.57949518      -3.97094960
H       -1.94934726      -3.23467016      -0.45536762       0.17757246      -0.02445137      -0.12724240      -0.05366753      -0.00705108       0.01538956       0.02024074       0.06768501       0.08431883       0.03275515       0.00149565      -0.00852128       0.05523878       0.17828611      -0.01677507      -0.14273854      -3.98018751
H        1.28519177       4.17285681      -1.43803501      -0.05771674      -0.38531011      -0.38429254      -0.05921921       0.01631877       0.03632950       0.02271051       0.04418573       0.16987205       0.00281605       0.01502444      -0.00816948       0.02022465      -0.02540546      -0.37991963      -0.36692791      -3.89297198
H        2.07815075       2.94883275      -2.38565087       0.17818014      -0.23374115      -0.20964617      -0.05536335       0.05594972       0.01909833      -0.08735261       0.00150314      -0.02781039      -0.02438546      -0.03951336       0.01042997       0.05738564       0.17619202      -0.23117052      -0.21886099      -3.96995415
H       -0.72051311       2.55749464      -1.30786991      -0.09249642      -0.10881861      -0.54064399      -0.04972451       0.07030887       0.01662643      -0.07606552      -0.01352264      -0.01776135      -0.01958654      -0.09107367       0.01883280       0.05172447      -0.07826904      -0.09711461      -0.55519353      -3.96963787
H       -0.47801462       3.47585320      -2.80888033       0.02656885      -0.01860724       0.03151765      -0.05984341       0.03272646      -0.05512057       0.04911501      -0.04176536       0.03375340       0.00400596       0.04799201      -0.05919441       0.04176147       0.01634960      -0.04245804       0.04284692      -3.98133350
H       -2.58322906      -2.29519629       1.44229102      -0.17701560       0.46109170       0.57484180      -0.05931697       0.07625339       0.00877100      -0.03221501       0.05435937       0.01799705      -0.00438167      -0.03165759      -0.00282821      -0.00501678      -0.17039542       0.47632062       0.59586338      -3.97978719
H       -0.99267679      -2.89221644       1.82228112       0.03374067      -0.07396346       0.60519719      -0.05342202      -0.00443948      -0.02537822       0.04138807      -0.05195492       0.02772432       0.00805097       0.06399387       0.04007446       0.01332830       0.03096137      -0.09839264       0.61179371      -3.93386099
H        1.13392353       3.01024580       0.45307750      -0.30695879      -0.10763597       0.49986061      -0.05546253       0.01014648      -0.05971543      -0.03876755      -0.03047940       0.02592954       0.02762885      -0.02207841       0.03379954       0.04892763      -0.31277451      -0.06874868       0.49357075      -3.92174685
H        2.74548602       3.00144243      -0.10579988       0.26280460      -0.37465528      -0.02310106      -0.05946608       0.08162157       0.06706727       0.02323374       0.04655176       0.05280535      -0.00660018       0.00667938      -0.03867150       0.00307514       0.26050430      -0.33466270      -0.00616150      -3.95246792
H        0.53554493       0.67318970      -2.26666689      -0.42670378      -0.13337065      -0.62475389      -0.02567093       0.01283060      -0.06176673       0.08195915      -0.05873213      -0.01631197       0.02828292       0.07999052      -0.01943257      -0.05802983      -0.39778149      -0.11682587      -0.61959007      -3.96437026
H        0.76013869       1.48127770      -3.80099201      -0.40625682      -0.03756702      -0.23116913      -0.06180300       0.01885446       0.01427906      -0.06520271       0.01920392      -0.01667121       0.00307144      -0.04837189       0.01565684       0.02191348      -0.45982933      -0.03784277      -0.24370926      -3.98436151
H       -1.77723646       0.02212876       1.55254149      -0.38525924       0.08716200       0.00188337      -0.04561217      -0.01552118      -0.03365513       0.10951453      -0.00691440       0.08081965      -0.03904572      -0.00221206      -0.00719867      -0.02392923      -0.38329753       0.11932526      -0.07559265      -4.00672120
H        2.42739201       0.99939734       0.91603619       0.28871107      -0.34002170       0.64917231      -0.05396908       0.03123767      -0.01201657       0.00552128      -0.02189218      -0.01372218       0.01013054       0.05430835       0.00927272       0.01200779       0.26956935      -0.33155854       0.65895395      -3.95600898
H       -1.78495622       0.73584551      -2.47586775      -0.89863318      -0.17045049       1.51383233      -0.12470555      -0.18412817      -0.00755025       0.09098681      -0.02454544      -0.28904530       0.15307664       0.04235959       0.19826836      -0.51165474      -0.90655918      -0.22138572       1.55667509      -3.46253478
H       -1.14835179      -0.14265236      -3.57167387       0.19576345      -1.12740648       0.02834009      -0.15221877      -0.12781350       0.03326102       0.05281190       0.01669243      -0.44173705       0.08550380      -0.01032478       0.10588618      -0.32137226       0.17255590      -1.16391865       0.02052359      -3.39752375
H       -1.76742721       1.32629204      -4.07083941       0.34398293       0.01120000       0.52943993      -0.21059610      -0.25932302       0.05150485      -0.12719431       0.08564812      -0.26130289       0.15332568      -0.10570923       0.08690299      -0.40682098       0.32754466       0.00423330       0.51418668      -3.35306206
48
Properties=species:S:1:pos:R:3:original_dataset_forces:R:3:LES_q:R:1:LES_BEC:R:9:forces:R:3:energies:R:1 original_dataset_energy=-209.44203186035156 energy=-209.4555422020143 stress="inf inf inf inf -inf inf inf inf -inf" pbc="F F F"
O       -1.32990634      -3.97310185      -0.38032639       0.34183508       0.95483220       0.35578847       0.32190555       1.21721580       0.41787813      -0.02619576       0.17865319       0.79697259      -0.11882801       0.04120434      -0.18911698       0.56593049       0.38559187       0.92284623       0.34333393      -4.54595818
O        1.51492000       0.08362901      -1.48900986       0.89341950      -1.39493096       2.61891413       0.28172696       0.58855257       0.13635019       0.37780316       0.18798348       0.99294237       0.21594948       0.17891156      -0.12654716       1.50715333       0.96646070      -1.29403896       2.80846561      -4.63274942
O       -2.53635478      -0.34897259      -0.73896581       1.40243220      -0.49386379      -0.44625574       0.28144312       1.36977031      -0.06075217       0.34147092      -0.24074643       0.47718660       0.08974667       0.02575880       0.11132301       0.53124028       1.41689121      -0.46791149      -0.36392420      -4.70063509
O       -2.35913968       0.00182873       3.52764273       0.99322921      -0.16538565      -1.56910264       0.29534900       0.57987760      -0.15762472      -0.43845368       0.04030220       0.88772144       0.14696717      -0.42787428       0.43919503       1.14117337       0.98294853      -0.16652121      -1.50592652      -4.65652353
O        1.30555153       1.05604577      -3.37086439      -1.09402835      -1.76602376      -1.16214991       0.30940124       0.47505864       0.33501942      -0.03048615       0.19605621       1.15000255      -0.39722013      -0.01022770      -0.21432952       1.17714339      -1.07553049      -1.86750248      -1.07911451      -4.53934039
C       -0.14790517      -3.58036923      -0.35108155      -4.38933849      -4.35295868       0.77581614      -0.07030892      -1.29516754      -0.63889670       0.05373528      -0.45726061      -1.24417100       0.54525963       0.04103788       0.74923258      -0.53074978      -4.42899595      -4.38396354       0.79438705      -5.24753197
C        1.02529216       0.06500548      -2.61453557       0.68436873       2.67762423      -1.30030119      -0.08692441      -0.61913231      -0.50713949      -0.44875905      -0.54027802      -1.18757587       0.59609074      -0.24298254       0.49962607      -1.83281238       0.49724927       2.60624404      -1.51845440      -5.12709119
C       -1.34009790      -0.64329112      -0.68648231      -1.05461037      -0.18470748      -0.03009325      -0.10607719      -1.59129294       0.03437543      -0.45491800       0.10390778      -0.49169462      -0.44844544      -0.45612279      -0.48732326      -0.96940742      -1.13159860      -0.25315337      -0.15027794      -5.18001601
C       -1.81259084      -0.43953842       2.49428034      -1.93609822      -0.84455329       2.46229601      -0.10418738      -0.40143526      -0.00464791       0.53446435      -0.13903372      -1.64630416      -0.22071956       0.52300521      -0.43144385      -1.15948039      -1.90046842      -0.73631048       2.43748130      -5.26715381
C        1.44715309       3.69536257      -1.52267802      -0.56644326       1.46688902       4.04264545      -0.07627792      -0.27039504       0.63427449      -0.06033843       0.37631064      -2.09716168       0.04964432       0.17940794       0.36211467      -1.79603209      -0.56730508       1.30697596       4.04725677      -5.42605228
N        1.01583982       4.86114740      -1.05995810      -0.77452451       2.31460834       2.79504204       0.14460717       0.22934538      -0.26031936      -0.09794476      -0.14370867       1.28617153       0.11421935      -0.13928582      -0.03437736       0.56562566      -0.77178299       2.39227891       2.70016501      -3.84699808
N       -1.89216423      -1.76748896       2.18243694       2.03799081       2.48202991      -1.33094871       0.12660657       0.27627480       0.24370552      -0.13447056       0.14321411       1.21919712       0.08953196      -0.22660592      -0.05705888       0.50029376       2.07763667       2.53924518      -1.45212717      -4.63176171
N        1.82854652       2.71588922      -0.74137580       1.23540032      -2.69765615       0.57252544       0.12113757       0.44975788      -0.06149159       0.02970272      -0.24011933       0.93589316      -0.29786753      -0.03445188      -0.34826467       0.77323941       1.16135037      -2.81095205       0.56384383      -4.31918401
N        0.26634645      -2.57742429      -0.99973130       0.68148553       4.51252890      -3.16538739       0.07133133       0.52726414      -0.05483124      -0.02705294       0.24331306       1.06667972      -0.47369508      -0.14328224      -0.49593727       0.59339983       0.82636759       4.41477377      -3.09478965      -4.74488707
N       -0.55472416      -0.15945745       0.31891763       0.13969614      -0.14768824       0.68819863       0.14260863       0.72329463       0.08588770       0.12985311       0.16361488       0.52055769       0.43035754       0.36585217       0.36451269       1.04450556       0.10273857      -0.09887242       0.65991514      -4.62470278
N        1.43844771       3.54012680      -2.75047255       0.43836161      -0.02131637      -5.98451471       0.11002488       0.10990816      -0.24310532       0.06329075      -0.00435510       0.82012925       0.04820461      -0.16459906      -0.19693273       1.39938105       0.42966816       0.06812137      -5.75333159      -3.93188247
C        0.79275066      -4.33249664       0.41496885       0.80650324       0.10080814       4.05902052       0.09525275      -0.01606150       0.07001137       0.05266014      -0.05137371      -0.18752896      -0.06869420       0.07271819       0.04169630      -0.07851086       0.71625479       0.16931731       3.96717678      -4.61831531
C       -2.53347993      -2.80982494       2.89289904       0.57410234       0.06868133       1.91936040       0.06530359      -0.14607712      -0.10260995      -0.00449781      -0.14101760      -0.42814214       0.13185520       0.09715877       0.19490677      -0.25381315       0.56614997       0.04352397       1.96602459      -4.82094265
C        1.76663756       2.34715629       0.71410847       1.06060970       3.15618110      -1.16330230       0.01091221      -0.28405408       0.01170079       0.05932584       0.01849813      -0.17964290       0.08386320       0.00423593       0.04630236      -0.47409550       1.03881394       3.17421104      -1.14976485      -4.84080735
C        0.36945504       2.38846898       1.19084215      -0.61472899       1.99667680       0.42926547       0.06608416      -0.07148824       0.20783394       0.07736466      -0.00009017      -0.06710025       0.02141673       0.05082596       0.15059931      -0.06344060      -0.51071667       1.96131250       0.53937905      -4.80351457
C        0.05035931      -1.03202724      -2.95225215      -1.68067181      -0.05913783       0.62294447       0.06112443       0.00526387       0.08590697      -0.12177724       0.12204123       0.01323248      -0.11478017       0.07148466      -0.00221891      -0.08844454      -1.60407794      -0.00470877       0.54675370      -4.74811006
C        0.07153010       1.32417107       2.13806152      -1.12901020      -3.36853695       2.30673528       0.09236392      -0.13472860      -0.00232251      -0.02393585       0.04547017      -0.11092598       0.01117476      -0.03998510      -0.05870463      -0.18137295      -0.97362214      -3.31299790       2.26794873      -4.55196104
C       -0.67269611      -1.68541932      -1.67995501       0.55981261       1.30699456      -1.54847324       0.00388339      -0.26192626       0.14196528      -0.10795402       0.08286355      -0.23857271       0.21704049      -0.13502265       0.04632742      -0.39313364       0.44205409       1.40164608      -1.48876574      -4.91458373
C       -1.13427305       0.51898712       1.53169608       1.95134842      -1.05032694      -0.84580415      -0.02117024      -0.27796423       0.04705684       0.02766272      -0.01293603      -0.25200380      -0.22509309       0.02298721      -0.19589356      -0.40579495       1.87366851      -1.14017785      -0.89544550      -5.08079095
H        0.85795516       4.87297821      -0.04980642       0.14034043       0.44593346      -0.80024898      -0.18762782      -0.17911258       0.02038452       0.00593812      -0.01633192      -0.26664999       0.00636898      -0.04413195      -0.26003845      -0.21832469       0.22765659       0.41020111      -0.83647691      -3.53810027
H        0.91568226       5.76657248      -1.55135405       0.23748687      -1.60386491       0.30277592      -0.19380708      -0.21366386      -0.06233746       0.01622976       0.00605580      -0.26868973       0.03549051       0.02392272       0.19531887      -0.22076074       0.17677662      -1.61438975       0.30801304      -3.57926999
H       -1.27594709      -1.98001313       1.41845036      -0.37216082      -0.53126550      -0.15806590      -0.18294820      -0.21148087      -0.00546619       0.04076348       0.03588214      -0.18216088      -0.04031859       0.13512513       0.06273360      -0.33981822      -0.39124216      -0.60886663      -0.14987433      -3.64173458
H        1.92868590       1.81355095      -1.26186800      -0.11904122       0.39977440       0.22411543      -0.12427484      -0.19301309      -0.11098336      -0.04660518      -0.03219877      -0.67644853      -0.19718280       0.03614573      -0.07369268      -0.30152609      -0.00010496       0.38976235       0.16237080      -3.77531945
H        1.21121144      -2.53505921      -1.32444692       0.39338884       0.34500593       0.43490443      -0.20756555      -0.25743514      -0.01059716       0.06270344      -0.02533579      -0.26947558      -0.00271263       0.04227667      -0.09482208      -0.23129909       0.38718150       0.31943665       0.41423173      -3.55974889
H        0.46686023      -0.28256834       0.24043429      -1.09392476       0.07490816      -0.05851251      -0.18287653      -0.30739118      -0.01377108       0.09681330       0.00176258      -0.21034427       0.05690128       0.09532121       0.02988364      -0.30976270      -1.08615731       0.11792912       0.01916292      -3.70315250
H        1.63674998       2.61648321      -3.07788324       0.09845598      -1.46829844      -0.75968379      -0.08147301      -0.06542302      -0.00398647      -0.06764706      -0.00195856      -0.57637842      -0.24059440      -0.00714388      -0.06387941      -0.16636443       0.06892065      -1.41014570      -0.86196128      -3.74732194
H        1.06059456       4.17723799      -3.43472886       0.02762537       0.05064627       0.59558529      -0.18729192      -0.19199741       0.03228542      -0.04278868       0.07063698      -0.11979411      -0.02981906       0.04057404       0.20980550      -0.43011017       0.02739272       0.07060458       0.59911868      -3.54916892
H        0.24437726      -4.99553680       1.13969803       0.72710830       0.31971097      -1.20907485      -0.04060743       0.01448425       0.02139427      -0.03662792       0.00931186       0.05076633      -0.05045785      -0.01253454      -0.09786881       0.03809314       0.72830775       0.34179540      -1.19300151      -3.91462448
H        1.53070569      -4.79830694      -0.16571963       0.93707198      -0.95204139      -0.68645191      -0.05681418       0.03196011      -0.02794354      -0.02607909      -0.03337218      -0.00579446       0.00302396      -0.04028956       0.04209957       0.01579701       0.93996219      -0.93511868      -0.68574848      -3.99319845
H        1.30433154      -3.58321977       1.06853831       0.04881075      -0.64656460      -0.39105713      -0.04223580       0.02162612       0.03313924       0.04536781       0.03274084       0.09100857       0.02933490       0.04452334       0.02058943       0.02858821       0.06989179      -0.66167661      -0.39633761      -3.89283314
H       -1.97099042      -3.71577525       2.67617869      -0.50542611      -0.17438897      -0.17176111      -0.05028384      -0.02114244      -0.04030079       0.00233218      -0.00220895       0.08894089      -0.00779457      -0.02890624      -0.03264459      -0.00680492      -0.50506563      -0.17885315      -0.16700418      -3.97473045
H       -2.39636397      -2.63069367       4.00960922      -0.65481490      -0.14181422      -1.37829661      -0.03854682      -0.02876270      -0.00814013       0.02849728       0.02072333      -0.02672915       0.01193683      -0.03584973      -0.03653512       0.09919309      -0.67959242      -0.16008870      -1.37628048      -3.94550496
H       -3.57013106      -2.84376836       2.57607555      -0.14817147      -0.44268829       0.38655791      -0.05471371       0.07605275       0.05717303      -0.01611688       0.03680670       0.00987984      -0.05494828       0.03000168      -0.00394003      -0.02643740      -0.12521584      -0.42890809       0.40164162      -4.00021122
H        2.39729285       3.05891609       1.33085513      -0.57884157      -0.70024389      -0.80169588      -0.05706434      -0.01251138      -0.01477994       0.00983568       0.02135107      -0.04401531       0.02058622       0.01955028       0.00253751       0.08406522      -0.59241990      -0.72740989      -0.80958821      -3.94779709
H        2.23185802       1.39702296       0.83915222       0.16227651      -0.68739551      -0.48204935      -0.05491862       0.00378290      -0.07018875      -0.01282450      -0.00566910       0.11980302      -0.06627482      -0.06067864      -0.10554511      -0.00208682       0.15111358      -0.59011746      -0.45472297      -3.95756277
H       -0.40889889       2.39687490       0.43839407       0.49896401      -0.29252219      -0.73076320      -0.04645773       0.07779351      -0.03526963       0.05513959       0.02949239      -0.08100668      -0.06339247       0.04386615      -0.08163008       0.05850013       0.48315081      -0.21519419      -0.75805739      -3.87025361
H        0.20146596       3.36056376       1.65285206       0.03822290       0.14329021       0.31636718      -0.05911112       0.01026699      -0.05158460      -0.02814988      -0.01317862       0.11803418       0.05417771      -0.02467619       0.02476478      -0.01260308       0.01206370       0.09522114       0.26837410      -3.89571306
H       -0.76679033      -0.68385440      -3.61240315       0.59336686       0.20991185       0.38896796      -0.05233004       0.04797580      -0.00162053       0.09435702       0.00306956       0.04176241       0.03962452       0.04754738      -0.04091184       0.10007793       0.61747471       0.22873166       0.39689250      -3.99026261
H        0.46513492      -1.86828876      -3.49685287       0.54580986      -0.08164540      -0.10163490      -0.05396187       0.01567869       0.03044847       0.03124242      -0.01359751       0.09011177       0.07654487      -0.03017898       0.05141587       0.03591345       0.53970734      -0.05329298      -0.09583988      -3.99687956
H        0.94159967       0.60538930       2.38017011      -1.16659772       0.94900531      -0.83786780      -0.04828867       0.06595378      -0.07746238       0.03704193      -0.07582817       0.06603792      -0.03129851       0.03739374      -0.03065949       0.02379643      -1.22868045       0.93210720      -0.79804459      -3.91012511
H       -0.22302037       1.60374665       3.15204954      -0.13797264       0.44854537      -0.28845316      -0.05275060      -0.00708944      -0.01566695      -0.01816860       0.00060028      -0.01691998       0.00741615      -0.01014600       0.05666842       0.15585370      -0.15801651       0.44766121      -0.27835048      -3.98582369
H       -1.45915484      -2.21246409      -2.23159742      -0.10563120      -0.22888120       1.14149129      -0.05534509       0.06358571       0.04984332       0.04450764       0.03819453       0.03355048       0.05795955       0.01531736       0.08380637       0.08046428      -0.04252631      -0.26837978       1.18523049      -3.97116127
H       -1.90270138       1.21180868       1.21603918      -0.12670729       0.07874236      -0.03703273      -0.05826275       0.07800186      -0.05279439      -0.04631124      -0.01825772      -0.00135073      -0.04055014       0.02882162      -0.02514335      -0.02644210      -0.14032446       0.03560536      -0.08395701      -3.97559535
46
Properties=species:S:1:pos:R:3:original_dataset_forces:R:3:LES_q:R:1:LES_BEC:R:9:forces:R:3:energies:R:1 original_dataset_energy=-199.6240997314453 energy=-199.66300385886936 stress="-inf -inf -inf -inf inf inf -inf inf inf" pbc="F F F"
O        4.08257055      -2.52631378      -0.86196744      -1.35679996      -0.34190804      -0.97419012       0.29688388       1.34577467      -0.03143211       0.09038850       0.21196605       0.69018523       0.22424325       0.30527233       0.17650947       0.44515273      -1.37223381      -0.34616430      -1.01652996      -4.66478532
O       -0.24678269       4.48878860       0.37686956       0.33041111      -1.33652318      -1.90499067       0.39413452       0.63986797      -0.38096037       0.01790415      -0.38115486       1.86626443       0.12757272      -0.15543340       0.66778980       0.87375531       0.28832130      -1.29432443      -1.79892899      -4.45165516
O       -2.25449467       1.82422233       0.27097094       0.58106250      -0.43134761      -1.29130220       0.21814840       0.84718571      -0.17420789       0.11514637       0.35331706       0.48206025       0.32209324       0.20920809       0.61439659       1.30479030       0.57901757      -0.40951462      -1.26062839      -4.75362788
O       -0.49055529      -1.41842914      -1.75378036      -1.93028319      -1.16222525      -0.63346297       0.26137209       0.92406891       0.25611787       0.25902687       0.04279212       1.19806777       0.15339509       0.25352461       0.18420115       0.51488582      -1.94140143      -1.21823341      -0.65685068      -4.70739244
O        0.97739929       2.62902617       0.25159633       0.17804477       0.40625691      -0.57591385       0.32493806       0.88045083      -0.46673287       0.01710029      -0.39411530       1.22301683       0.06428493       0.16716589      -0.32812182       1.05576237       0.11581125       0.38586226      -0.46654533      -4.57186368
C        3.05285144      -3.04650998      -1.32438254       1.56659758      -0.49791887       2.31905174      -0.07439265      -2.07056538       0.35869445      -0.02631469       0.22057151      -1.02192283      -0.45306067      -0.20196068      -0.33119331      -0.28273908       1.53378215      -0.47372679       2.37902783      -5.25825077
C        0.16756764       3.48025203      -0.26792312      -0.03637479      -0.58211493       2.62520289      -0.08334567      -0.85631266       0.86067532      -0.30762431       0.72679280      -2.15060352      -0.33422972      -0.24801399      -0.51705461      -0.95074348      -0.02690578      -0.69664252       2.38371640      -4.96356152
C       -2.10608315       1.24230194      -0.83792126       0.59006977       1.94535196       2.96365714      -0.10572840      -1.25254214      -0.38035617      -0.00874168      -0.67807763      -0.87374510      -0.71454529       0.11819394      -0.75731913      -1.09682089       0.59937347       2.06622541       3.05392198      -5.17265106
C        0.31083685      -0.63847172      -1.31572461       1.75590634      -1.15003097       1.02059257      -0.08043043      -0.80967989      -0.36076264      -0.58443245      -0.09734412      -1.79929818       0.07057476      -0.43285648       0.01315454      -0.43184063       1.77938785      -1.15138918       0.92674895      -5.26458862
N       -2.98424101       0.36535877      -1.21699488       1.94629717       0.47295401      -2.92849493       0.08273443       0.80743991       0.44284913       0.18086674       0.37762302       0.57057705       0.36791434      -0.19277857       0.20178234       0.37675892       1.90125756       0.31554956      -2.99920452      -4.66114309
N        0.28444526       0.64820910      -1.52599084       0.63025093       3.82581306       0.61990392       0.11695249       0.46881684      -0.12881611       0.13498182       0.00704895       1.21823802       0.00249654       0.05508403      -0.25505947       0.35877127       0.56942462       3.81191166       0.69642867      -4.62758051
N        1.81318569      -2.53872108      -1.13484430       1.26931906       0.71849442      -0.37359378       0.12658025       1.21352637      -0.37232443      -0.07985956      -0.67166569       0.79468009       0.21634365      -0.22295852       0.21743629       0.35357736       1.21712830       0.84792162      -0.45205437      -4.63053984
C        3.11923671      -4.47724295      -1.92476308       1.76141715      -0.26748964       1.34886134       0.10808933      -0.17871144       0.13384651       0.05504700       0.03948224      -0.00114760       0.10168881      -0.02756261       0.12373608      -0.03675478       1.75063722      -0.28027641       1.36979505      -4.45739619
C       -4.24342728       0.07928950      -0.70929480      -1.38791490      -0.87839717       1.83869779       0.06822592      -0.47127930      -0.07591108       0.07800075      -0.01020164      -0.14503467       0.02746520       0.24057485       0.03644184      -0.12219263      -1.39175509      -0.88574015       1.79976965      -4.83102867
C       -0.01943646      -0.72766638       1.69832325       1.50895047       0.38349447      -0.14677714       0.09305291      -0.08513345       0.01135156      -0.03408939       0.00497478      -0.16074087      -0.01766293      -0.02881169      -0.02153512      -0.08849121       1.54107679       0.28744209      -0.23491754      -4.54976959
C        0.86686736       0.19143295       2.60921979      -0.42790973      -1.05658424      -2.43334889       0.09632522      -0.10244927      -0.03908931      -0.11060213      -0.01327236      -0.02892134      -0.05259157       0.02538874      -0.04596094      -0.22575582      -0.38294317      -0.97998678      -2.33833030      -4.58741055
C       -0.45433289       2.99526405      -1.57792473      -0.33807197       1.47837138      -2.03224778       0.05404999      -0.02504802       0.14892952       0.07607229       0.02527424       0.05990214       0.05691625       0.07225021       0.30027738      -0.04284308      -0.29141070       1.67389160      -2.00986342      -4.73333431
C        0.83110243      -1.80686140       0.89830792      -1.25533748       0.94464558       0.19360667       0.10785701      -0.08144570      -0.06007425       0.07899249       0.05987938      -0.21804270       0.02493212       0.00764451       0.08080695      -0.07734546      -1.24479107       0.92443728       0.17106485      -4.49545365
C        0.11433142       1.32858968       3.29379106       1.60347092       0.91563141       1.13759339      -0.01010972      -0.27885575       0.23227534       0.11095552       0.15761639      -0.40433944      -0.02212359      -0.06415483       0.19925969      -0.04298373       1.55484694       0.79399050       1.13832277      -4.59370622
C       -0.91144192       1.56460047      -1.77922869       1.05721056      -1.91069078       1.14164054      -0.01692315      -0.26764293       0.19584256      -0.09546242       0.15524651      -0.43373484       0.04666976      -0.08645478       0.05163763      -0.15552567       1.08404853      -2.00375290       1.11230753      -5.06374281
C        1.47072124      -1.26101255      -0.43096280      -2.00060725      -2.96715999      -0.65169078      -0.02894744      -0.20761996       0.10309620       0.18135923       0.10474763      -0.40210811      -0.14282704       0.16878931      -0.10923151      -0.24107372      -1.94904649      -3.03206409      -0.53778466      -5.00201133
N       -0.62008590       2.32802081       2.35205078      -2.64295006      -3.54533005       4.04645300       0.01522551       0.28790680      -0.18639522      -0.05484959      -0.09439025       0.36215459       0.13737765       0.07121188      -0.08285107       0.18040068      -2.64985864      -3.45928147       3.93922026      -4.16104589
H       -2.68250656       0.00623238      -2.10571432      -0.67873812      -0.81132162      -0.17179632      -0.19705981      -0.28455014       0.10274882      -0.08091621       0.04435970      -0.17354004      -0.07661808      -0.02383508       0.00904466      -0.28145839      -0.68171328      -0.81256991      -0.13996645      -3.51639492
H        1.07714891       1.22710395      -1.17059302      -1.04942477      -0.74398351       0.23560363      -0.17735143      -0.20802178      -0.13197904       0.01484537      -0.06538360      -0.27391030      -0.18603801       0.01012237      -0.16763687      -0.32143434      -0.97621064      -0.77890586       0.16525670      -3.66374249
H        1.11612892      -2.98366475      -1.67878485      -1.05096614       0.02562752      -0.09979657      -0.19024268      -0.22766410       0.02459599      -0.02293756       0.03330351      -0.29800343      -0.04526451      -0.00909271      -0.01234462      -0.21507471      -1.03214897       0.06950045      -0.11000650      -3.61147208
H        2.21665883      -5.08766556      -1.84652090      -0.04611694       0.50057673      -0.60235000      -0.05356036       0.07865361       0.02715193      -0.00319693       0.04492763       0.05185394       0.01746714       0.01188919      -0.02183333      -0.04016296      -0.02789814       0.50923612      -0.60544254      -4.03051409
H        3.56044650      -4.30203390      -2.89004779      -0.44395620      -0.47465020      -0.83698237      -0.05355361       0.02409855      -0.05689423      -0.07283452      -0.01453979       0.03263381       0.00789821      -0.00607769      -0.00559209       0.05572267      -0.45249440      -0.47864062      -0.85630379      -3.98215850
H        3.93924809      -5.11975908      -1.40577912      -1.37373948       1.55625153      -0.47983006      -0.03283479       0.11136308      -0.13288301       0.02397942      -0.12067270       0.14970945      -0.00235149       0.03284750      -0.01900539       0.01961609      -1.37356655       1.55031588      -0.47676888      -3.90709800
H       -4.51906061       0.64375514       0.20828229       0.63566852      -0.23949729      -0.79264981      -0.03722113      -0.02793162      -0.00169161      -0.00217352      -0.08444938      -0.00896225       0.03230923      -0.13837852       0.01768929       0.01806048       0.63094768      -0.23035495      -0.76388935      -3.96950992
H       -4.17368793      -0.97141945      -0.45407254      -0.78477383      -0.30787474       0.25680441      -0.05101919       0.06495813       0.00069030      -0.01010353       0.05324195       0.07442023      -0.03803070      -0.06632035      -0.02944698      -0.02046016      -0.79287108      -0.29187605       0.25601453      -3.92180824
H       -5.01001406       0.23206872      -1.44609451      -0.33616826       0.03736066      -0.33976623      -0.05430504       0.16012206      -0.00420021       0.03848046      -0.00722813      -0.03826657      -0.01058088       0.04974297      -0.00283576       0.00792129      -0.36985165       0.03814624      -0.33147021      -3.97896549
H       -0.65669572      -1.30866683       2.31748796      -1.11990035      -0.15178400       0.42270958      -0.06762536       0.03933796       0.03251829      -0.02508900       0.04068199       0.02055508       0.00656727      -0.05091831      -0.00707292       0.01769642      -1.10853459      -0.09667523       0.44071375      -3.98249228
H       -0.56217813       0.00998905       1.05302787       0.18080047      -1.32024848       0.23447429      -0.03694019       0.04097697      -0.04226210       0.02787011      -0.07941042       0.07211917      -0.03892829       0.05996678      -0.03798501      -0.01097225       0.16975452      -1.29184110       0.25989965      -4.03999983
H        1.47515225      -0.41726494       3.25864577      -0.44100729      -0.07084617       1.06146026      -0.05984274       0.05281291      -0.06224317       0.08744860      -0.06531428       0.06883742      -0.01909049       0.03954190      -0.00588554       0.03469739      -0.43345119      -0.11484598       1.07453730      -3.94296745
H        1.64653611       0.46273065       1.90664768      -0.00321006       1.26944435      -0.01317160      -0.05114171       0.06450712       0.03992899      -0.05048425      -0.00145191      -0.01277594       0.01014154      -0.06271074       0.04488566       0.02651605      -0.01325515       1.28172289      -0.00745650      -3.91468692
H       -1.33967328       3.61804557      -1.68416870      -0.05489451       0.06420037      -0.33737805      -0.04930084       0.05754693      -0.08014329       0.05196160      -0.02538115      -0.00912232       0.03371150       0.02934374       0.02235866       0.01236168      -0.05677667       0.07127026      -0.33604401      -3.93867726
H        0.17731705       3.17663407      -2.49508715      -0.27475545       0.26624471       1.19415057      -0.04936882       0.02601404       0.06636866      -0.05390592       0.04058835      -0.07326561       0.04205470      -0.03844271      -0.09887922       0.14136057      -0.27701120       0.28058944       1.19096068      -3.96999617
H        0.21762851      -2.72177863       0.71755826      -0.14439021       1.19750738      -0.69096750      -0.04234007       0.00471846       0.09694300      -0.04244841       0.04418727       0.14517653       0.01532714       0.00048598       0.04623066       0.01391308      -0.17564850       1.18643104      -0.66577345      -3.91238857
H        1.54155684      -2.32261586       1.53565073       0.82227057       0.77967405       0.20597471      -0.05573500       0.04380840      -0.03676936       0.02640687      -0.06124813       0.03323006      -0.03505780       0.10246374      -0.11840777       0.05114015       0.81589242       0.83044900       0.25360607      -3.97050711
H       -0.45280206       0.91837341       4.15018988      -0.63665891       0.48119622      -1.01605904      -0.06191291       0.00892107      -0.03929795      -0.07945029       0.00271808       0.00262464      -0.04008145      -0.05529554      -0.01423140       0.02746864      -0.60593006       0.50070307      -0.98552943      -3.97908161
H        0.92377561       1.88640785       3.81812191      -0.77248722       0.17488916      -0.52768505      -0.05695984       0.02573032       0.03258090       0.05501454       0.00576273       0.06730553       0.11437186       0.03790954       0.04434367       0.00458623      -0.74849705       0.16282571      -0.51820330      -3.92141115
H       -1.17680645       1.37433767      -2.81326413      -0.39413729       0.30124944      -0.09630615      -0.06361180       0.04259850      -0.00629213       0.02289318      -0.00712498       0.07617608       0.00565840       0.02875695       0.01010130       0.06837479      -0.34336570       0.29820036      -0.09827168      -4.01333502
H        2.34840703      -0.69423163      -0.29221559       0.81766886       0.73663044       0.10213958      -0.06415775       0.02206036       0.08967525       0.03324329       0.08307931      -0.02070968       0.00075576      -0.01052980       0.01858567       0.02855192       0.83211758       0.71457875       0.10367371      -4.10445612
H        0.00386959       2.71079898       1.76718068       3.84568572       1.98617005      -3.27959847      -0.11414204      -0.26915122      -0.04392256       0.20773661      -0.01415994      -0.29627273       0.03514294       0.18935278       0.11948573      -0.45969266       3.87090289       2.01865408      -3.28623435      -3.47364502
H       -1.16307712       3.09612322       2.73013306       0.19302575      -0.12516481       0.70643097      -0.18980014      -0.22494696       0.04134227       0.01990522       0.03534744      -0.27253258      -0.01501921       0.05524334      -0.12808511      -0.34174791       0.20430724      -0.12568318       0.72045322      -3.33313660
H       -1.26760864       1.84237170       1.72999096      -0.28961444      -0.09537181      -0.44576579      -0.11723548      -0.35371485      -0.00258173      -0.26011089      -0.02894436      -0.14278780      -0.02127227      -0.21938818      -0.08258604      -0.50572870      -0.31846486      -0.16736536      -0.48244096      -3.51669519
49
Properties=species:S:1:pos:R:3:original_dataset_forces:R:3:LES_q:R:1:LES_BEC:R:9:forces:R:3:energies:R:1 original_dataset_energy=-211.10760498046875 energy=-211.22097733402984 stress="inf -inf -inf -inf inf -inf -inf -inf -inf" pbc="F F F"
O        1.11682153       0.35832798       3.98300195      -1.11450148      -2.12406135      -0.44051704       0.28587440       0.60811843       0.46727217      -0.12621022       0.41155185       0.94045300      -0.29544218       0.04422380      -0.10901959       1.01233886      -1.03941647      -2.05425792      -0.46310001      -4.64765246
O        1.19769788      -1.38572025      -0.54959965       0.22009972       0.45079103      -0.60095620       0.24461271       1.75157289      -0.50408990       0.03558342      -0.18138956       1.28264442       0.13680475       0.02000008       0.10437121       0.42864411       0.15767337       0.36486753      -0.59631705      -4.74432629
O       -0.10519165       2.69570994       0.46427730      -0.85268122      -0.38171700       0.75927389       0.26884940       0.57731797      -0.07911878       0.15288439       0.03296863       1.41994788       0.15368604       0.21006534      -0.08570986       0.46590904      -0.91039193      -0.40873630       0.65444873      -4.71170819
O       -3.97648954       2.25429487      -0.74008954       0.65750813      -0.78889722      -0.12321049       0.28680283       1.40712307      -0.07692002      -0.33985212      -0.38641272       0.68975986      -0.11424493      -0.15629442      -0.19539415       0.50004361       0.61773795      -0.77270500      -0.09739377      -4.70132398
O        2.71249914      -2.92032242      -0.37196314       1.36123788       2.00178337      -0.18517403       0.36893111       0.91475862       0.03010186       0.07983276      -0.65268545       1.62856062       0.00922102       0.00944302       0.08121066       0.42247085       1.15835677       2.21339926      -0.25931824      -4.39638746
C        1.76112199       1.28487647       3.56807208      -0.72346640       0.05355121       1.03261626      -0.06267287      -0.50524068      -0.60030519       0.04007201      -0.55424081      -0.95951816       0.51122630      -0.14825169       0.24154671      -2.02677070      -0.76076718      -0.00570932       1.06946317      -5.32108395
C        2.44146204      -1.68164086      -0.40566221      -1.22863579      -1.29764831       1.57680142      -0.10473605      -1.58691089       0.33075941      -0.20782357       0.36129558      -1.86783313      -0.07641670      -0.16332990      -0.13624870      -0.19090426      -1.02469713      -1.34737845       1.68109496      -4.99228159
C       -0.02061829       1.47753680       0.56230450       3.46094871       1.52958810      -0.22583140      -0.07573317      -0.85027658      -0.06097100      -0.41380377      -0.26873530      -1.80695532      -0.28179878      -0.47999603      -0.12158948      -0.31631764       3.38363918       1.60654908      -0.23197596      -5.17885745
C       -2.81662202       1.92933345      -0.97190368      -0.00863019      -0.09245317       0.46284258      -0.08781579      -1.61205791       0.00140124       0.53087017       0.11801146      -1.02836247       0.58185514       0.57867623       0.49694916      -0.59573803      -0.01193324      -0.07558103       0.51057981      -5.26715505
N       -1.98664522       2.66869354      -1.71387112      -0.09907410      -0.77282470      -0.67684567       0.12122383       0.81579014      -0.07038332      -0.11323452       0.20209466       0.77792142      -0.49185860      -0.32471225      -0.36465945       0.51805394      -0.05103200      -0.76003860      -0.67032173      -4.67982146
N        1.82141995       1.70154810       2.29650998       0.75307435       1.25118172      -1.58099186       0.11861102       0.35914209       0.11761154       0.12534996       0.19982539       0.48473653      -0.00701235       0.10422374      -0.08346673       1.59449497       0.77182086       1.28229279      -1.55127610      -4.62736839
N       -0.75138032       0.54529870      -0.01424566      -2.05685520      -0.52203643       0.06714899       0.11649294       0.72889966       0.33948016       0.30519621       0.19991922       0.80019306       0.14070539       0.33017412       0.26092035       0.40737029      -1.94670556      -0.47889659       0.10836125      -4.59722300
C        2.45345306       2.10762525       4.57246256       0.08759996       0.02638945       0.66623890       0.10327708      -0.06685547       0.05065257       0.00406679       0.00595471      -0.06522087      -0.07234041       0.12704822       0.11773750       0.05740058       0.05697436       0.04467583       0.65722169      -4.61890726
C       -2.35040450       3.79948473      -2.50345945      -1.06357491       0.33769944      -0.06628576       0.06710605      -0.21219401       0.20517737      -0.14289390       0.06849909      -0.42700672       0.22965557       0.03114751       0.08349315      -0.20194264      -1.09679937       0.34529048      -0.09259748      -4.78978620
C        3.35249710      -0.43561524      -0.06261307       0.81041807       0.80754280      -1.25013483       0.06324084       0.03480116       0.13432674       0.05926003       0.31395572       0.01978603       0.04365533       0.04221152       0.08540301      -0.13607530       0.88668018       0.68534327      -1.18107799      -4.70034320
C       -2.04736972      -1.89304006      -0.72279501       0.85616642       0.07576887      -1.54486310       0.08913762      -0.18799806      -0.09740477      -0.05138164       0.01389987      -0.03197217       0.00769182       0.05585879       0.07554815      -0.08432226       0.92760974       0.07240467      -1.58204230      -4.63264558
C       -1.49590707      -2.89061832      -1.79591453       1.57730150       0.65357608       2.84410191       0.10814176      -0.10400060      -0.06388068       0.05230464       0.00528558      -0.10491407       0.01538259      -0.03388293      -0.13902933      -0.11164867       1.49903298       0.59916327       2.83002228      -4.57968633
C        2.55872416       0.88661742       0.03956279      -1.95186293       1.66814995      -1.83412218       0.10484950      -0.29476226       0.07702425       0.02948977      -0.02659391      -0.06420775       0.05870565       0.12156260       0.10317387      -0.07600420      -2.03814219       1.55610064      -1.85804585      -4.30637569
C       -2.25266576      -0.50656736      -1.35824299       0.18229793      -1.83867610      -0.76581323       0.08935536       0.06709070       0.02073213       0.12875818      -0.27819559      -0.11296868      -0.05202243      -0.01106742       0.05517541      -0.11435022       0.12922447      -1.74670707      -0.80203170      -4.68224800
C       -1.09705305      -4.16610241      -1.00482833      -0.76336110       1.27958393      -0.91787666       0.01065435      -0.41595688      -0.17187449      -0.18153908      -0.07312694      -0.07231392       0.02273919      -0.20847500      -0.25929394      -0.32277714      -0.73870429       1.20940588      -0.92158156      -4.80460607
C        1.33878469       0.88829732       1.13392806       1.45008290       0.58562493      -0.05721196       0.02008863      -0.14999714      -0.16227377      -0.00895800      -0.11497476      -0.20081568      -0.22023309      -0.23775575      -0.26589001      -0.64874464       1.34991516       0.36113867       0.00485106      -4.91675114
C       -2.22291422       0.57164979      -0.39997062       4.02659559       3.26230192      -2.64586687      -0.02279175      -0.46658893      -0.11778885      -0.13481437      -0.02432698      -0.10891811      -0.10545724      -0.25516595      -0.07609905      -0.24774995       3.91069140       3.35789842      -2.60473337      -4.97629103
N        0.08771396      -3.78785205      -0.20409347      -0.67309827       3.42870021      -0.30805382       0.01542458       0.46954452       0.56265294       0.14726825       0.12884024       0.65711083       0.00078163       0.11348285       0.27911870       0.29217261      -0.70255088       3.47142828      -0.30516885      -4.06386753
H       -1.02717257       2.39119387      -1.79393959       0.04866521      -0.12614578       0.29009986      -0.19370367      -0.29693617       0.03163981      -0.01464285       0.07759104      -0.23028848      -0.00502285      -0.07039321       0.04185674      -0.28234969       0.07367601      -0.11959898       0.29603213      -3.60264016
H        2.28641295       2.65680361       2.15515399      -1.18130136      -2.39450574      -0.17404318      -0.20752096      -0.21952147       0.00134025       0.01791154       0.03012237      -0.18561869       0.04281342       0.01020138       0.02828260      -0.17379876      -1.15833036      -2.37370640      -0.18010149      -3.53923617
H       -0.19315282      -0.31063500      -0.17326988      -0.61862260       0.51519996       0.01302758      -0.13774621      -0.39218495       0.25681615       0.08909410       0.33195875      -0.49097458      -0.08545902       0.14597787      -0.08282811      -0.16158094      -0.49120916       0.50921268       0.03605369      -3.74846262
H        2.47208047       1.64399433       5.58314610       0.42592415       0.04161208      -1.12437499      -0.04198791      -0.01362769       0.01231581       0.01434790       0.00635568       0.00990398      -0.01715136       0.07072431       0.00906132       0.17810320       0.43410963       0.02994235      -1.12387989      -3.95051093
H        3.36876130       2.35783243       4.09797668       1.31800365       0.57451344       0.52658427      -0.05075406       0.05219495       0.02874995      -0.01892780       0.06141389       0.01122492       0.04915646      -0.04561922      -0.00954322       0.01309015       1.30972626       0.56446072       0.52299723      -3.93640629
H        1.85047293       2.97201824       4.68537760      -0.36202505       1.21325827       0.08934284      -0.04902178       0.02848814      -0.02353280       0.03673686      -0.01390219       0.06501448       0.05398476       0.00616342       0.01191588      -0.00080814      -0.35074800       1.21197433       0.07510506      -3.92846041
H       -1.60761738       4.50082397      -2.35889149       1.67759824       1.65101016       0.15035470      -0.05309151       0.04876771      -0.00421801       0.03078878       0.01361063       0.11631601      -0.05936395      -0.00413407       0.00039875      -0.02961204       1.70100451       1.63680926       0.13619312      -3.88289288
H       -3.25991464       4.32469463      -2.25852776      -0.41382623      -0.49922776       0.77442074      -0.03800550       0.04101753      -0.07916446       0.02086853      -0.04337622       0.02097967      -0.01673372      -0.04406137       0.06376354      -0.04252976      -0.43438447      -0.49660895       0.76587092      -3.94127765
H       -2.43584967       3.65439653      -3.55878210       0.12424155      -0.78013021      -0.77677363      -0.05106043      -0.03429663      -0.00462897       0.00983606      -0.01571453      -0.00375184      -0.00934550       0.01919097      -0.02862553       0.07960905       0.12945501      -0.76520327      -0.77123230      -3.95126492
H        3.88832068      -0.38924888       0.91251659      -0.26283881      -1.31007481      -0.66703945      -0.05756033       0.07476590      -0.01389995       0.05061091       0.02022601      -0.01645704       0.01169984       0.09830313      -0.02615279       0.04698861      -0.21895750      -1.29768918      -0.69644823      -4.00114920
H        4.16547585      -0.28951323      -0.88515508      -1.38314748      -0.47624558       1.44241393      -0.04895886       0.21040400      -0.04204649      -0.09602963       0.04459477       0.01941367      -0.00785164      -0.13175505       0.02289438       0.05782049      -1.41132206      -0.44070192       1.46238289      -3.98158381
H       -2.91483521      -2.38608909      -0.30562419      -0.57534701       0.53372371       0.13468024      -0.06301442       0.04568000       0.04294471      -0.05040632       0.05286953       0.05034814      -0.02897148      -0.08496210      -0.05397702      -0.00479370      -0.59404210       0.57639680       0.13748216      -3.97135976
H       -1.33520126      -1.74349010       0.10101411      -0.30898193      -0.35907224      -0.33231080      -0.02903661      -0.00911368      -0.04475567       0.08999137       0.10379818       0.08597247       0.03132613       0.05103026      -0.01419834       0.07598185      -0.34395490      -0.37673577      -0.27856303      -3.86827636
H       -2.16554737      -3.04109001      -2.59996367      -0.75427502      -0.37211996      -0.60004836      -0.06779647       0.00316964      -0.06020925       0.04615724      -0.04322595      -0.02236010      -0.02216778       0.05706728      -0.01389392       0.06867411      -0.72118984      -0.36540992      -0.61978581      -4.01043552
H       -0.54295015      -2.49528790      -2.16359329      -0.37980893       0.11051083      -0.33564544      -0.03831555       0.03824424      -0.03779553      -0.12955905       0.00897098      -0.02709328      -0.05669749      -0.06932996      -0.02098935       0.00915849      -0.32486996       0.11105134      -0.32716409      -3.91240834
H        3.28193355       1.71368623       0.19773015      -0.35288507      -0.60963124       0.83123505      -0.05194328       0.11856460       0.07691136       0.02310904      -0.02253534       0.12681058       0.02013430       0.01473445       0.01392165      -0.01867318      -0.36725760      -0.56296451       0.85930472      -3.94251220
H        2.14640832       1.33934641      -0.96364462       0.35669377      -1.65100777       1.50801384      -0.04121823      -0.04426883      -0.05969817       0.03800119      -0.03115600       0.01885155      -0.08132405       0.06632570      -0.04978578       0.11707515       0.36767294      -1.52508098       1.44048059      -3.94415282
H       -3.06755614      -0.49448967      -1.98199904      -2.78243470      -0.14069155      -0.85471922      -0.06144086      -0.00507047      -0.02304480       0.01100419      -0.00106724       0.02883308       0.00381116       0.07429253      -0.01003894       0.02391317      -2.75851998      -0.21113083      -0.87846093      -3.88396889
H       -1.54297757      -0.26406860      -2.12281609       1.26193774      -0.37601149      -0.12360203      -0.04512035      -0.07444042       0.01942761      -0.11473585       0.07943975       0.04248260      -0.00814163       0.03467821      -0.03191920       0.12303710       1.24172820      -0.44126189      -0.11845772      -3.83548088
H       -0.85913169      -4.88691330      -1.74812615       0.52357060      -1.02236176      -0.03033598      -0.06555574      -0.03235712      -0.08021361      -0.00865993       0.00280593       0.04266643       0.03567093       0.02059947       0.09290434       0.02986694       0.48376231      -0.98854449      -0.05462425      -3.97615375
H       -1.95532537      -4.46761513      -0.39928487       0.54497659      -0.27317661       0.16606578      -0.06108610       0.04475642       0.02740056      -0.01717799       0.01590370      -0.04093470      -0.02691390      -0.03466365      -0.09262057      -0.00395551       0.53932362      -0.23272683       0.18748076      -3.96385919
H        1.16220760      -0.16455203       1.44478893       0.35877585       1.06818783       0.21468386      -0.04299215       0.03489827      -0.00328669      -0.00612726       0.02589232       0.03029138      -0.06039199      -0.03921724      -0.11547507      -0.08734007       0.42378499       1.04314383       0.18162129      -4.00987979
H       -2.82114458       0.40219229       0.35414752      -2.69120073      -0.96800089       4.34188509      -0.07003889       0.00559726      -0.00635604      -0.00982472      -0.00636124      -0.01915860       0.00184000       0.00271627      -0.00640298      -0.00978779      -2.62741762      -1.05671069       4.29929945      -3.84780343
H        0.77278894      -3.08952045      -0.65412730      -0.06473999      -0.47268808      -0.84640121      -0.09952707      -0.37596674      -0.45939117      -0.01771353      -0.18799741      -0.65377993       0.02438674      -0.01838135       0.07770735      -0.11762345       0.02013948      -0.55838862      -1.01808308      -3.35143063
H        0.70572919      -4.43178177       0.16882545       1.01043963      -2.01440716       1.06753194      -0.18742992      -0.28578359       0.01616796      -0.00571311       0.00403408      -0.39311252       0.04607484       0.00579984       0.03733330      -0.20664617       1.03617807      -1.97143120       1.06195803      -3.39618614
H       -0.09115022      -3.00450659       0.46620330      -0.43398005      -1.45499527       0.12676242      -0.17435722      -0.24430086       0.09634583       0.04063493      -0.01567148      -0.43568593      -0.03064596       0.09552567       0.00816335      -0.30937242      -0.48657368      -1.41904468       0.30547778      -3.13152131
49
Properties=species:S:1:pos:R:3:original_dataset_forces:R:3:LES_q:R:1:LES_BEC:R:9:forces:R:3:energies:R:1 original_dataset_energy=-214.38014221191406 energy=-214.37956151615865 stress="inf -inf -inf -inf inf inf -inf inf -inf" pbc="F F F"
O       -2.35277486       0.59673190       3.11559939       0.80888355      -1.09424794      -0.11602418       0.27216804       0.72910605      -0.38581202      -0.20478246      -0.50068761       1.01312147      -0.06896891      -0.05530074      -0.31492468       1.07133919       0.81734584      -1.11624722      -0.09709105      -4.75388855
O        0.28680202       2.04671574      -2.01403093       0.55250758      -0.27378017      -1.80318964       0.36244124       1.25832749      -0.07447118       0.49246690       0.00106749       0.55992375       0.15735336       0.16317550       0.04045515       1.29476522       0.60288977      -0.26047130      -1.81000613      -4.48619045
O        4.06011581      -1.75240850      -1.69814944      -0.34983116       1.00013363       0.19142887       0.29505977       1.11018325      -0.38933300       0.17686053      -0.59088006       0.70167603       0.05509041      -0.17614092       0.22803937       0.66577231      -0.38398638       1.01131396       0.21912787      -4.65892742
O        1.42287362      -2.20740080       1.47488070      -0.22497600      -0.31060070       0.39421609       0.27025446       0.73217612      -0.40576899       0.14781106      -0.20108903       1.22285198      -0.54179736      -0.05593775      -0.33551752       0.54545113      -0.25370365      -0.26983405       0.35594650      -4.73294951
O        0.64531708       2.35585594       0.05550855       0.37316251       0.69285107       2.72399330       0.27296838       1.07443409      -0.13758670      -0.39052683      -0.00151901       0.71998249       0.07849576      -0.13842139       0.06829684       1.31107214       0.38246351       0.69244374       2.72989398      -4.57568039
C       -1.79160964      -0.43080097       3.54775119      -1.87650561       1.57829785       0.75291181      -0.06913209      -1.01286010       0.74381804       0.67266809       0.87527627      -1.18397748      -0.07965931       0.53219466       0.12313883      -1.23168944      -1.91655223       1.62191187       0.70645547      -5.30928684
C        1.11056209       2.20476770      -1.08472502      -1.10354531      -0.30420062      -0.98531413      -0.10192689      -1.39075835      -0.03734798      -0.06241406       0.02863681      -0.17726684      -0.31071762      -0.07101760      -0.17831064      -1.97423387      -1.16003592      -0.25692961      -0.92429449      -4.92982983
C        3.09261727      -1.01185215      -1.49854469       0.56876832      -2.44454622      -0.39505836      -0.09047742      -1.40705819       0.60486123      -0.49410887       0.62888400      -0.53282044      -0.18603954      -0.31593132      -0.24789802      -1.15614166       0.57900539      -2.44284546      -0.45121418      -5.27861118
C        0.89949095      -1.17681599       1.10202765      -0.01714260       0.14054535      -0.03779871      -0.08262837      -0.96671545       0.21722264       0.22157626       0.17933975      -1.50901917       0.88634296       0.33495831       0.68025121      -0.60822021      -0.03709096       0.01058992       0.05491084      -5.34030938
N        2.11079407      -0.90192473      -2.40297174      -1.64571095       0.69262040      -0.33721706       0.11157966       0.72725532      -0.17107594       0.36081089      -0.03549883       0.27849260       0.12518805       0.42410885       0.05028403       0.85668136      -1.66924323       0.67007585      -0.33151972      -4.74665346
N        1.50922334      -0.25970656       0.32948601       0.28068939       0.32885849      -0.72730839       0.13179205       0.70491900       0.27600314      -0.37215350       0.00144567       0.79531332      -0.29205025      -0.22049545      -0.34910930       0.60895637       0.19909393       0.39302176      -0.74630060      -4.79437398
N       -0.90860176      -1.14423537       2.86226344       1.41314614      -0.34373507      -1.53565311       0.10435146       0.74334098      -0.34241642      -0.48349432      -0.31867108       0.53852414       0.08540504      -0.54030696       0.21346169       1.07823761       1.44577732      -0.36512623      -1.53923485      -4.73835627
C       -2.22127509      -0.93182218       4.93178320       0.31843290       0.03020607      -0.97219330       0.10702921      -0.07926849      -0.00288551      -0.07349092      -0.03688303      -0.04755227      -0.04025821      -0.03825655      -0.08840975       0.06484845       0.32064917       0.00491381      -0.97503688      -4.65669421
C        2.09951568      -1.51960433      -3.72052050       1.24208832       0.08830471      -0.61287600       0.06613486      -0.11818138      -0.04060988      -0.07951302      -0.01673171      -0.19976986      -0.18451965      -0.08983417      -0.11636008      -0.41615292       1.25701903       0.07637323      -0.63791609      -4.77789208
C        2.61204267       2.06901312      -1.30963445       1.04838634      -0.46297538       0.14836113       0.06618240       0.21826965       0.03409902      -0.08989186       0.01831144      -0.07001937      -0.02533146      -0.04413206       0.00787339      -0.08253399       1.08119962      -0.42553267       0.14593480      -4.80755802
C       -1.71809959      -0.87433857      -0.91260231       0.55629480      -0.20995679       0.36443189       0.09131099      -0.17554285      -0.00272261      -0.01728537      -0.03290716      -0.14202044       0.04401742      -0.07816885       0.01534127      -0.07362910       0.57058953      -0.20471686       0.37518190      -4.67866246
C       -2.92502832       0.05060029      -1.05609751      -0.65596116      -0.95898396       0.81048834       0.09043821      -0.11978902       0.05570867       0.00347977       0.10515506      -0.08344629      -0.05408114       0.03321210      -0.06065880      -0.13862503      -0.68476758      -0.99292118       0.82292086      -4.67567683
C        3.41358209       1.13842940      -0.33480948      -1.50057137       0.92190242       1.33365202       0.10760045      -0.02396898      -0.00200060      -0.01956649       0.03682706      -0.17003283       0.05171181      -0.04167105       0.06996934      -0.09975980      -1.51544401       0.95832718       1.25787582      -4.63132480
C       -1.53603721      -1.55834889       0.49019021      -0.65542799       0.77437222      -0.70498365       0.09342776      -0.07682954      -0.04123412       0.01987029      -0.08838750      -0.12931369      -0.00453905       0.02724918      -0.00664620      -0.14507017      -0.62940452       0.75834528      -0.76667700      -4.65830218
C       -2.94866347       1.25121200      -0.08449197      -1.81546533      -1.13563192      -1.29703283       0.02206455      -0.33321436      -0.20293789       0.04959910      -0.10336821      -0.43581014       0.04816107      -0.06964441       0.12777743      -0.21934517      -1.72962137      -1.17629188      -1.29898001      -4.77584392
C        2.90872478      -0.31108472      -0.17230862      -0.77121282       1.05696809       0.09189236      -0.02228737      -0.49050087      -0.09565292       0.12507514      -0.10010060      -0.22050178       0.07508207       0.12647101       0.06329720      -0.16228754      -0.70415075       1.02158181       0.12439530      -5.15351040
C       -0.57334292      -0.80441391       1.43739772      -0.13318235      -0.92361319       0.68160450      -0.02439972      -0.08150287      -0.11945880       0.01493076      -0.10500604      -0.20934019       0.02877682       0.12165768       0.05166042      -0.65501095      -0.11801004      -0.97717970       0.73827737      -5.08885091
N       -2.02346611       2.29536676      -0.48407146      -0.63212627       1.43654048       0.15202208       0.00252036       0.48501710       0.01998607      -0.02324448      -0.02284643       0.52275051      -0.03477820      -0.05161254       0.00864465       0.16639990      -0.71973836       1.44631563       0.19604699      -4.32918667
H        1.35104132      -0.25574419      -2.20033073       0.36213091      -0.29220778      -0.15718886      -0.19068572      -0.25374816       0.06980162       0.05759797       0.08208071      -0.29579095      -0.03946201       0.05878624      -0.01890346      -0.21579562       0.37228534      -0.31382084      -0.12519486      -3.65286592
H        0.97300947       0.58298492       0.08941841       0.56026053      -0.58409381       0.72086823      -0.15734999      -0.10030781       0.18612821      -0.04771768       0.08146392      -0.65482942       0.08418868      -0.05928174       0.03051609      -0.17584768       0.55351320      -0.56517040       0.65568451      -3.74967698
H       -0.43009648      -1.94294691       3.27447319      -0.25491387       0.42831224      -0.28363869      -0.20662068      -0.25552485      -0.00008917       0.05296797       0.03240645      -0.23245136      -0.02382769       0.01256310       0.02474547      -0.22072042      -0.26863791       0.43438707      -0.27673699      -3.63645015
H       -2.04741240      -0.13483739       5.65823889      -0.49732718      -0.16568375      -0.16117345      -0.04889950      -0.00334839       0.02270846      -0.04274002      -0.00330463       0.02493397       0.07985938      -0.04386163       0.02358941       0.15284887      -0.49987604      -0.15049384      -0.16238282      -4.00118011
H       -1.63319528      -1.77893496       5.20580530       0.41399911      -0.64224762       0.38856140      -0.04916777       0.01157981      -0.04304729       0.01541601      -0.05734514       0.04523492      -0.00219458       0.03236241      -0.01691380      -0.04627704       0.41450159      -0.63234661       0.37794580      -3.96318070
H       -3.26299143      -1.27904749       4.83303022       0.38272956       0.55134535       0.32420865      -0.04753552       0.11497113       0.04979783      -0.08567048       0.04060407      -0.01268094      -0.01295825      -0.02224457      -0.01800551       0.04866426       0.38662019       0.56395886       0.31456998      -3.98746505
H        2.29301023      -2.58911228      -3.71317625       0.01165328      -0.07707705       0.54374278      -0.04514718      -0.04684992      -0.01522186       0.02307883      -0.02911598       0.08188639       0.07939423       0.01199516      -0.00949240      -0.02194561       0.00794603      -0.08124344       0.52352516      -3.97618649
H        2.93666410      -1.10577440      -4.32601070      -0.68063748      -0.11813482       0.19536497      -0.04480276       0.01632572       0.02625905      -0.05356737       0.03071420      -0.01614332      -0.02348314      -0.04119878       0.01900783       0.06412526      -0.65845559      -0.11010114       0.20405354      -3.95913654
H        1.15352595      -1.39659119      -4.25353098       0.15127794       0.41832024       0.42360222      -0.05369294       0.03753199       0.00601688       0.07874148      -0.02311406      -0.00719399       0.03952479       0.02695873       0.03125140       0.07542684       0.13896208       0.40812678       0.42788170      -3.99054410
H        3.10747528       3.04649496      -1.24421692      -0.38877633      -0.12410553      -0.01849516      -0.05464609       0.04536493       0.05767509       0.00258593       0.04795747       0.10384526      -0.02613483      -0.03092023      -0.04114470       0.00892049      -0.41568526      -0.13999608      -0.03552305      -3.99658317
H        2.80652332       1.68400228      -2.30124426      -0.29484263       0.20097297      -0.35918057      -0.05359608       0.02746864      -0.01562573      -0.01800112      -0.02058381      -0.03030958       0.04361288      -0.04216767       0.00805607       0.10750855      -0.28477949       0.19382389      -0.34313095      -3.98033128
H       -0.84005874      -0.29659551      -1.17638183       0.41426915       0.11441527       0.14551347      -0.05116901       0.06392687       0.02203303      -0.07411550       0.03131938       0.01218337      -0.02684398      -0.02168198      -0.00963172       0.00908580       0.44460028       0.09370808       0.18424659      -4.00065811
H       -1.69601977      -1.69170868      -1.63765454      -0.51868987       0.31262711      -0.14083691      -0.06063894      -0.01570991      -0.03479740      -0.01283693      -0.00957497       0.07743928       0.06406099       0.01594299       0.05590156       0.08675831      -0.53921946       0.31524885      -0.14978385      -3.94295618
H       -3.09446311       0.35759562      -2.09093785       0.29931879       0.23079540       0.09488470      -0.05771833       0.01400456      -0.04269943       0.03761548      -0.09878167       0.00321387      -0.05279521       0.04012349      -0.02720309       0.12780108       0.28581048       0.22228551       0.07863917      -3.97994890
H       -3.82390285      -0.55098653      -0.81496847       0.33589527       0.34616888      -0.01593227      -0.05764063       0.11649687       0.05379466       0.01416745       0.02164628       0.07130102       0.00337110      -0.01956458       0.00264802      -0.00840516       0.33056600       0.33771962      -0.02444881      -3.92367992
H        3.39134121       1.61606181       0.67000550       0.05119902      -0.38969466      -0.58685499      -0.05087847      -0.05609000      -0.03249543      -0.00684717       0.01347148       0.04121283       0.03933491       0.08540912       0.05240102       0.09397416       0.04193426      -0.39017893      -0.58091992      -3.97154927
H        4.43284845       1.10030842      -0.64635682       0.66540128       0.01141911      -0.32984287      -0.06164540       0.02026811      -0.04225489       0.02067086      -0.01097070       0.03865403      -0.04330516      -0.03922163      -0.04597687       0.01715189       0.64764040       0.01141879      -0.32075430      -3.98580224
H       -1.15956616      -2.54963493       0.26983261       0.12832646      -0.19889124       0.41866246      -0.05616374      -0.00342219      -0.03450059       0.00117270      -0.02228171       0.09931333       0.00894064      -0.00951542      -0.00424438       0.01568764       0.13085261      -0.18872452       0.43984721      -3.98696344
H       -2.53489399      -1.67160475       0.96813899       0.72010589       0.13452011      -0.20616303      -0.05110115       0.10315849       0.04586420      -0.05012627       0.04412245       0.00253766      -0.01192138      -0.06353223      -0.03213139       0.05077526       0.74464240       0.13078236      -0.17962523      -3.99032734
H       -3.98581219       1.60302389      -0.11485952       0.39503247       0.37666151       0.03212171      -0.06041153       0.06595313       0.00092060      -0.02918453      -0.03770260       0.03013894       0.01361214       0.01913432      -0.00432820      -0.01307997       0.38742450       0.38870416       0.05896346      -3.92379961
H       -2.75315976       0.98979247       0.92101914       0.27194142      -0.44142815       1.00531125      -0.03884296       0.00857031       0.00062500      -0.02728693      -0.00807533       0.03429162       0.01674768       0.03446118       0.01359818      -0.14734085       0.27606624      -0.37220336       0.97725831      -3.98630221
H        3.55989575      -0.82006299       0.52516621      -0.18852372      -0.18932673       0.16267608      -0.05752777       0.03147435      -0.01083599       0.02734656      -0.01489413       0.02290611      -0.02929787       0.09574246      -0.02531902       0.01128169      -0.17494813      -0.20557359       0.18217287      -4.00327864
H       -0.67694485       0.26114273       1.30335522      -0.16685763       0.20699249       0.26604784      -0.04524894      -0.02213363      -0.02832575       0.08908707       0.00618035       0.08634982      -0.03015905       0.05367402       0.01150608      -0.01714835      -0.16861992       0.25414995       0.18400289      -4.00958337
H       -1.64365387       2.16270924      -1.40677500       0.62554067      -0.03834882      -0.92489922      -0.15703987      -0.45391978       0.06123384       0.06259395       0.05084165      -0.19066819       0.01666476       0.08595800       0.00285060      -0.29667594       0.66166444      -0.02084797      -0.93678286      -3.38639955
H       -1.16643298       2.29725695       0.06622881       1.16109717       0.16265081       0.33021179      -0.12939630      -0.68665995       0.07735440      -0.01183022       0.02215821      -0.14631916      -0.00935810       0.00433573      -0.04116514      -0.20716431       1.20002577       0.13126780       0.36301674      -3.47731503
H       -2.42949772       3.23827648      -0.43219581       0.25863042      -0.51428300       0.01003456      -0.20768927      -0.28621885       0.11929644       0.00220535       0.11041087      -0.43080098       0.02954501       0.03958798      -0.03226790      -0.20043297       0.25088190      -0.49199890       0.01477897      -3.30512958
46
Properties=species:S:1:pos:R:3:original_dataset_forces:R:3:LES_q:R:1:LES_BEC:R:9:forces:R:3:energies:R:1 original_dataset_energy=-202.02017211914062 energy=-201.9869196126288 stress="inf inf inf inf inf inf inf inf -inf" pbc="F F F"
O        0.83043301       2.03861928      -2.43855715      -0.12086339       0.15224400      -0.20129715       0.25747803       1.06483625      -0.05510681       0.53321482      -0.07165182       0.42953752      -0.05268474       0.21233071      -0.10670705       1.03018768      -0.13722199       0.12450332      -0.18884769      -4.72944336
O        1.66718638       0.56131190       2.09785843      -0.14239591      -0.02895531      -0.26619926       0.31220549       0.99045530      -0.23341236      -0.42697872      -0.31493002       1.25375229       0.01709924      -0.28042537      -0.17341248       0.75640063      -0.12658272      -0.07461571      -0.27555537      -4.69237064
O       -1.92307973       2.15293598      -0.27164119       0.29040277       0.15407808       0.71953636       0.27720419       1.17380171      -0.56980263       0.01384780      -0.18866685       0.80871453       0.12755553       0.13624465       0.00252647       0.38713329       0.16763689       0.18715905       0.71451246      -4.71186130
O       -2.96200371      -1.54410005      -2.41085601       0.50507551       0.63165098       0.93770868       0.29187906       0.78146509       0.49931271       0.08471204       0.51715597       1.03231175      -0.06202589       0.30900495       0.09707501       0.71192313       0.49090677       0.59092694       0.91757361      -4.67930103
O       -0.11226916       1.03850651       3.33354545      -0.89190358      -0.45606840       0.78800315       0.30991375       0.90383509      -0.15600177      -0.67815661       0.04071253       0.98069483      -0.25401579      -0.49815128      -0.13729269       1.16085558      -0.91954900      -0.52452751       0.86380040      -4.67145556
C        1.76786411       1.80918813      -1.68216228      -0.41391325      -0.35177523      -1.47968173      -0.08027074      -1.04458687       0.28503982      -0.29895637       0.41981628      -0.14818042      -0.21991921      -0.03484764      -0.03118375      -1.92965898      -0.40526387      -0.28255052      -1.54921958      -5.31434901
C        0.70180607       1.31284952       2.45192909       0.90039349       0.91589648      -0.48001283      -0.08217309      -1.28023731       0.52206513       1.08186974       0.38873936      -1.20597840       0.25877058       0.72810825       0.13888927      -1.19432648       0.88228284       1.07938202      -0.57760645      -5.08932440
C       -0.80583888       1.68388796      -0.15363774      -0.32895193       0.83884889      -0.74439913      -0.10034843      -1.32722824       0.47852896      -0.11294657       0.31117942      -1.58722891      -0.27226821      -0.11647256      -0.32516909      -0.26355258      -0.13927110       0.61337684      -0.75834850      -5.22531260
C       -2.17679691      -0.65379536      -2.05017138      -0.83547753      -1.15007091      -1.38669991      -0.08908315      -0.75176370      -0.73391165      -0.24084082      -0.80533001      -1.28363129       0.28593937      -0.23881721       0.34142926      -1.11459094      -0.81457878      -1.18229487      -1.34719746      -5.32904336
N       -1.80189395       0.32445735      -2.86699772       0.74651486       0.28556684       0.46289200       0.12094716       0.37946318       0.20928067       0.12183018       0.37480118       0.72226270      -0.20790051      -0.01024735      -0.48205093       0.85900262       0.74759268       0.37058991       0.44725164      -4.74439990
N        1.67484581       2.04955316      -0.38608930       0.44933373       0.12903626       2.50148034       0.12166739       0.56231189      -0.09009221      -0.25908858      -0.19337318       0.22883841       0.29792249      -0.14369745       0.05411289       1.33199599       0.45391786       0.16286631       2.58953822      -4.81365167
N       -0.53784424       0.40722215      -0.46974343       0.02399022      -1.50131714       0.43116075       0.11345910       0.48011395       0.03016817       0.10895829      -0.10920786       1.36149853       0.22816211      -0.01389207       0.33453942       0.24605291      -0.05570015      -1.32555153       0.47295303      -4.77737381
C        3.02355433       1.17361116      -2.21164227       0.21852128      -0.28660184      -0.54668051       0.10248303       0.07380045      -0.06641326      -0.04868498      -0.09256679      -0.10310409       0.02590264      -0.08367176       0.01423776      -0.01754306       0.22451038      -0.30360732      -0.56197501      -4.67723703
C       -2.17498136       0.43957734      -4.24311924      -0.10297980      -0.83955777      -0.49869803       0.06633167      -0.15249354       0.03812849      -0.11110638      -0.07335519      -0.10751596      -0.11223271      -0.08890927       0.09589437      -0.53196077      -0.10675303      -0.84072744      -0.49196144      -4.85533189
C        0.00124186      -2.27798104       0.69055057       0.93230754      -0.11220231      -0.09989265       0.09751651      -0.09629620      -0.03199972       0.01996487      -0.03778603      -0.11577115      -0.02617836       0.00778347      -0.06941448      -0.04531047       0.92980932      -0.14800018      -0.05134352      -4.69799331
C       -0.86902803      -2.23782039       1.93524933       1.45797873       0.66890037      -0.42785001       0.09300625      -0.06037252      -0.02032811       0.11845003       0.05405468      -0.13043910       0.07027135       0.03813321       0.06272248      -0.04591151       1.44488272       0.64891087      -0.45729905      -4.70887609
C        0.57254994       2.70746231       1.75755310       0.80236799      -0.78154689       0.06661449       0.07425904      -0.08716919      -0.07964544      -0.03883212      -0.03829391       0.17900492      -0.17594602      -0.03205102      -0.02025090      -0.01964065       0.82165846      -0.80489855       0.02710432      -4.78868229
C       -0.70966828      -2.00865531      -0.63216138      -0.12069212      -0.97027522       0.43636703       0.08733395      -0.09347741       0.09530789       0.01075016       0.01147459      -0.14739997      -0.00406671      -0.00975252      -0.05078158      -0.03948800      -0.10616515      -0.95173666       0.37076184      -4.74615921
C       -0.01605737      -2.61832595       3.18033671      -1.51993334       0.10962535      -0.47199661       0.00566918      -0.34028173      -0.11953895      -0.16409715      -0.16845800      -0.24614421      -0.27278088      -0.11672854      -0.08269274      -0.20675330      -1.55247935       0.10210467      -0.50952234      -4.71747672
C        0.43911278       2.55676436       0.23014569      -0.44370905       0.01364851      -0.25900307      -0.01250497      -0.27692118       0.13749144       0.16495846       0.11731520      -0.31597124      -0.13234646       0.12507830      -0.05395526      -0.36986302      -0.40622597       0.04786056      -0.25426566      -5.10434998
C       -1.48983681      -0.70112383      -0.69162047       0.53517640       0.65016001      -0.52135032      -0.02450074      -0.24136983      -0.18442906       0.06469488      -0.10269923      -0.57099227      -0.09142392      -0.00305488      -0.10787471      -0.07317278       0.59170702       0.72054030      -0.55196637      -5.16944672
N        0.83973467      -1.47348452       3.64618373      -1.35222316      -1.28382730      -0.73459780       0.00410542       0.26557490       0.15326535       0.04103620       0.05072851       0.54904775      -0.20989746       0.09355044      -0.07310693       0.36540573      -1.33824885      -1.26961952      -0.72642627      -4.25067578
H       -1.06051838       0.91906816      -2.53362894      -0.03955255       0.25442055      -0.14399527      -0.15731992      -0.35613477      -0.15436970       0.02955432      -0.17314596      -0.25536483      -0.07898685      -0.02637081      -0.05586009      -0.16653207       0.00974177       0.20678743      -0.13745400      -3.74530564
H        2.42588758       1.78738117       0.26251787      -0.66781867      -0.00736986      -0.56078577      -0.20225410      -0.22802078      -0.02017257      -0.01865608      -0.02375626      -0.21345883       0.07546338      -0.01860979       0.06923631      -0.28701538      -0.63073459      -0.01766537      -0.56998712      -3.61365842
H        0.42718947       0.14179516      -0.46525782       0.11487085      -0.04042850       0.19896224      -0.18462786      -0.25358090       0.04604225       0.00632790       0.03031155      -0.18051532       0.06000777       0.00993456       0.04978749      -0.21051404      -0.01827224      -0.13610497       0.17397173      -3.59850356
H        3.90337324       1.67724514      -1.82973313       0.22966081      -0.10718734       0.06200081      -0.05185977       0.04849978       0.01180347       0.02309417       0.05181386       0.01003718       0.01259528       0.03162482       0.03334739      -0.00348334       0.24224352      -0.11073573       0.06848496      -3.99859205
H        3.08393192       0.09388983      -2.00967646      -0.09929913       0.40872875       0.33820945      -0.05031186      -0.02289973      -0.03017975       0.00319834      -0.05360487       0.07872059       0.00602590      -0.00546546      -0.01273817      -0.01928711      -0.09243500       0.41349264       0.33412691      -3.99186027
H        2.99282360       1.24660301      -3.30350089       0.05713681       0.20707370       0.32766840      -0.04263560       0.03281368       0.01479013      -0.03442644      -0.01105670      -0.01786831       0.00664655      -0.03315048       0.00081602       0.11088845       0.05972807       0.20332712       0.33232599      -3.93133242
H       -2.60184431      -0.48224905      -4.65485287       0.31643134       0.02062907       0.46542221      -0.03427282      -0.00832838       0.01865176       0.02201209       0.03575985       0.01663887       0.09797132       0.03468745       0.01538176       0.01046971       0.30943692       0.02470729       0.45924397      -3.95451152
H       -2.92389202       1.17773747      -4.38547659      -0.63908046       0.87464458      -0.06912538      -0.05312840      -0.00162328      -0.04635601       0.00806604      -0.04964813       0.01186200      -0.03377193       0.03424175      -0.00775780       0.04103606      -0.64467622       0.86837700      -0.05974955      -3.96182900
H       -1.30384398       0.70536464      -4.81827545       0.26170966       0.13008098      -0.22250964      -0.05158274       0.03423878       0.02039776      -0.03394224       0.04077884      -0.02877722       0.02309147      -0.00152269      -0.03696543       0.11728088       0.27268358       0.12517727      -0.23245576      -3.96518886
H        0.82875419      -1.55797625       0.76534557      -0.24497750      -0.03337332       0.30969989      -0.04047206       0.06318657       0.04125139      -0.00453273       0.07044296       0.01541610      -0.01116671      -0.00043905      -0.03469982       0.00162425      -0.22236305      -0.02581321       0.25670242      -3.95342508
H        0.51881993      -3.25604701       0.67425454      -0.37142897       0.26509574      -0.34572837      -0.05781990       0.03508986      -0.09381997       0.01606352      -0.07126644       0.07319249      -0.01868007       0.01097918       0.04424743       0.00368053      -0.36059435       0.29003864      -0.34494803      -3.92853939
H       -1.69067836      -2.91553092       1.78476572      -0.30694178      -0.38534978       0.35909152      -0.06319486       0.08013878       0.04178733       0.02953431       0.04129110      -0.02409316       0.04003976       0.04436034       0.02052002       0.02992125      -0.29939861      -0.39467627       0.37066359      -3.96787176
H       -1.26579106      -1.23073089       1.98715115      -0.21617082       0.13007441       0.55193812      -0.04739680      -0.00448062      -0.07637418       0.00088161      -0.08400084       0.06516438      -0.00143067      -0.01285558      -0.04055652       0.00211463      -0.21995040       0.10698320       0.63221938      -3.98213590
H        1.49381983       3.28784633       1.95751095      -0.37795776      -0.33253890      -0.05344413      -0.04912276       0.06376556       0.09395518       0.05798698       0.07220095       0.09033532       0.02398222       0.02655860       0.04142815       0.03862989      -0.37773564      -0.33481965      -0.05559019      -3.99805569
H       -0.25677067       3.25472283       2.20668674      -0.01521931      -0.21574700      -0.38165355      -0.05216720       0.04310862      -0.03755518      -0.04939316      -0.04499284       0.08535402       0.07135113      -0.04810022       0.02581466       0.06082313      -0.01228544      -0.23520265      -0.39143911      -4.01879431
H        0.07013541      -1.98975754      -1.38611293      -0.03379572       0.03717778      -0.38941422      -0.05597716       0.03946906      -0.03167012      -0.05021464       0.00179699       0.01054784       0.00481565      -0.03966017       0.00386551       0.07956127      -0.03036363       0.05758910      -0.37411398      -3.95685225
H       -1.36638093      -2.86326551      -0.86725467       0.08824882       0.62573802      -0.02918185      -0.04695784       0.01271779       0.04738894       0.00961294       0.04353919       0.08971262       0.04614639       0.02674136       0.07457173       0.01131596       0.07878130       0.61368298      -0.01157744      -3.97225743
H       -0.78639686      -2.88431239       3.92475152       1.04897058       0.05634119       0.23525998      -0.06257214       0.02948154       0.02989305      -0.01448997       0.02954940      -0.05800418       0.03902895      -0.01734695      -0.05537608       0.07930962       1.05578885       0.06468343       0.24983346      -3.96808337
H        0.60357714      -3.46829247       2.88931179       0.00397046       0.15305561       0.47941589      -0.06138277       0.02007454      -0.05982473       0.05094704      -0.01409091       0.02020810       0.07083302       0.01143396       0.04335642      -0.03331831      -0.01213876       0.16534804       0.46988729      -3.96178465
H        0.24742234       3.54690003      -0.18069223      -0.21336922      -0.14566603      -0.12021423      -0.05823661       0.03881294       0.03340145      -0.00029341      -0.00494677       0.08425727      -0.00675375       0.01522681      -0.04862988       0.05599785      -0.23982811      -0.14628629      -0.09495721      -4.01269479
H       -2.29579401      -0.67115313       0.01645684      -0.20943294       0.09215628       0.57928193      -0.06299344       0.06498786      -0.00335166      -0.02233963      -0.00664399      -0.00107823       0.01688141      -0.02985919       0.01721351      -0.00397636      -0.24139971       0.08937812       0.59390021      -4.02823803
H        1.47246373      -1.64007950       4.39198494       0.64064997      -0.44973978       0.57694042      -0.20009911      -0.25388714       0.02426834      -0.12391660       0.04700956      -0.24580312       0.11938975      -0.08809998       0.06683749      -0.40176819       0.64064234      -0.45420379       0.57766251      -3.37568770
H        1.27178323      -0.94407094       2.88860416       1.35965502       0.37109017      -1.19557917      -0.10664485      -0.19393045      -0.10141945       0.13234608      -0.14096015      -0.55114956       0.11909675       0.06276490       0.26890205      -0.37593451       1.32474530       0.37914181      -1.12488797      -3.46059725
H        0.27289331      -0.67575049       3.87016606      -1.27010667       1.30585873       0.80307591      -0.12754357      -0.20695935       0.12355563      -0.02201962       0.12396075      -0.65864019       0.09948685       0.03341158       0.08972355      -0.13800915      -1.23848090       1.30670288       0.77617711      -3.39768630
42
Properties=species:S:1:pos:R:3:original_dataset_forces:R:3:LES_q:R:1:LES_BEC:R:9:forces:R:3:energies:R:1 original_dataset_energy=-189.60488891601562 energy=-189.6698481346761 stress="inf -inf inf -inf inf -inf inf -inf inf" pbc="F F F"
O       -2.19221115      -2.98950505      -2.98930168       0.74853104       0.28860426       4.06326342       0.32394841       0.44156682       0.12326364       0.22199797       0.13983796       0.84333957      -0.03754555       0.28590577       0.07993200       1.24992133       0.74623382       0.29773590       4.02263625      -4.55727619
O        0.26116717       2.86740994       4.36722946      -1.03327155       0.24065463      -0.91173828       0.35673976       1.18069538      -0.83048967      -0.06911462      -0.50908165       1.10701857       0.31243423       0.38215626      -0.17914187       0.75295722      -0.97761881       0.16265923      -0.92744908      -4.52430630
O        1.10802066       1.81000876       0.34259817       0.52984488       0.66754198      -0.17235751       0.19815284       0.70743409       0.15381083      -0.12315778      -0.04796201       0.43366583       0.21878773       0.10642160       0.24367592       1.54412433       0.47354697       0.73767704      -0.06592402      -4.73088459
O        0.14276707      -1.04147995       0.86162019      -0.16041473       0.65010577       0.15615915       0.26730022       0.88599164      -0.45549952       0.19117046      -0.25377157       0.88588435       0.05873570       0.26312087      -0.05058618       0.56776644      -0.14972896       0.68714307       0.22883324      -4.73559042
O       -1.29273295       4.51531601       4.08293295       1.12676561      -2.22534704      -1.14317620       0.43995076       0.90621184      -0.66987159      -0.17741604      -0.65794016       1.80051366       0.67494518      -0.11002100       0.60107425       0.98576187       1.16943623      -2.32652217      -1.18601877      -4.31217966
C       -1.93536675      -3.24911880      -1.74856281      -1.83597207      -2.20326471      -5.91392708      -0.04916744      -0.29160271      -0.38168221      -0.51172759      -0.34901809      -1.28668909      -0.26539965      -0.59440021      -0.50966385      -1.72953850      -1.79726756      -2.17631925      -5.81558410      -5.22895052
C       -0.69161427       3.44425726       3.73752785      -0.41823709       1.37959194       2.21772218      -0.04563567      -1.24919785       1.26611392      -0.08839472       1.01668133      -1.95571420      -0.82463069      -0.46925290      -0.43366293      -1.12794826      -0.52611887       1.47353902       2.13163649      -5.17455445
C        0.88154650       1.80190086       1.57851005       1.76361549      -1.95482826      -1.90188015      -0.09039927      -1.35070550      -0.25533830      -0.39119024      -0.13505360      -0.13815586       0.14318993      -0.40874835      -0.05301053      -1.71924120       1.71355117      -1.94700063      -1.82051998      -5.21404279
C       -0.81737429      -0.38986450       0.47348276      -0.68836087      -2.30980563      -1.02989280      -0.08092415      -0.95412811       0.68954578      -0.28577325       0.53231619      -1.37250882      -0.43043926      -0.35920909      -0.35485386      -0.66312503      -0.77082149      -2.33614682      -1.11529366      -5.23697776
C        0.87402403      -0.89579284      -3.52855515      -1.51798713      -0.91527390      -1.88935077       0.00037773       0.06426043       0.02879212       0.05524335      -0.09380896      -0.04193970      -0.09732594      -0.15259502      -0.07650043      -0.18883306      -1.56447844      -0.93678473      -1.82748484      -5.41188194
C        0.30720115      -0.36480594      -2.42867947       0.47691408      -0.45476004       0.91747391      -0.05602973      -0.40316909      -0.00312404       0.00289573       0.10416570      -0.07750267      -0.00560166       0.19493803      -0.05090939      -0.06087236       0.52086852      -0.46341756       0.86132017      -5.64719494
C        2.59863567      -0.26526481      -2.25024152      -4.25388479      -0.37641907      -0.95344049      -0.13401872      -0.07723326       0.04077819       0.07146166       0.07601207      -0.20093034      -0.17828212       0.25561140      -0.14952393      -0.56133895      -4.16933719      -0.39648615      -0.96424547      -5.55947262
N        2.23820829      -0.82279837      -3.43458319       0.01216970      -0.20980246      -0.28910699      -0.00037030       0.02883811      -0.03318235      -0.00795494      -0.05662278       0.09000529       0.20566830      -0.22335826       0.18934579       0.49223509       0.00100754      -0.29350142      -0.40554440      -5.14519189
N        1.85550475       1.81141043       2.48060632      -2.12327456      -0.01876122       2.46110821       0.12963158       1.03671689       0.04822336       0.46873610       0.05760591       0.23290448       0.02372784       0.20150950       0.08921480       0.96446868      -2.03817633      -0.04078607       2.45159798      -4.55806342
N       -1.25364923       0.76722622       0.97209644      -1.09405947       0.58366311      -0.72446412       0.08461612       0.54059198      -0.19407359       0.00940103      -0.23697801       1.06240930       0.45269789       0.08189991       0.50944982       0.52630653      -1.08846145       0.53028550      -0.77562190      -4.84677278
N       -1.50465631      -2.46331453      -0.81618726       0.77968705       2.83131909       0.82775348       0.05008181       0.28895784       0.29867267       0.35554935       0.28257051       0.98018270       0.48962945       0.28247990       0.35916355       0.82683513       0.74078909       2.74969791       0.77894230      -4.82296636
N        1.37919188      -0.02456877      -1.63986909       2.49828506       0.60404575      -0.51924354       0.02043916       0.20362339      -0.05569396      -0.06453294      -0.13291284       0.16161088       0.29787781      -0.16130463       0.22570788       0.45594058       2.50710757       0.58118416      -0.46550362      -5.10471219
C       -2.06555939      -4.69663143      -1.30733979       0.26080620      -0.38067797      -0.03566732       0.11201538      -0.14376134      -0.04250116      -0.00264692       0.02606014       0.15770999      -0.04492505       0.03009489      -0.02335072      -0.00503595       0.29811773      -0.43016198      -0.02905873      -4.61519346
C        3.26659799       1.95376825       2.23392773      -0.16126926       0.95813078      -0.91374272       0.05777187      -0.52145271      -0.06296980       0.00262626       0.01545165      -0.19118279       0.08962882       0.01222698       0.01869620      -0.14953055      -0.19234068       0.91757602      -0.93535599      -4.67210922
C       -1.23156023       2.78138852       2.45003653       3.81996417      -1.50249672      -0.74062926       0.06591351       0.02571104      -0.08183293       0.01705167      -0.02814430       0.06366305       0.19390999       0.03522806       0.24681270       0.25772538       3.86364605      -1.61531676      -0.67751554      -4.65856471
C       -1.12668109      -0.16697519      -1.99803698      -0.69866788       0.21693225      -0.95793599       0.03955539      -0.13077627      -0.05000323      -0.06825838      -0.06640541      -0.20385925      -0.04210648      -0.00192419      -0.00990257      -0.21169799      -0.69788455       0.29459853      -0.92641774      -4.85061641
C       -0.50053209       1.44003737       1.98189116      -0.34983259       0.50113183       4.03455687       0.00691092      -0.14689561      -0.03471028      -0.19021081       0.01745563      -0.40609591      -0.31187425      -0.09431535      -0.28592241      -0.48062306      -0.29290757       0.62051385       3.96649115      -4.97431241
C       -1.63213003      -0.99795842      -0.77155697       0.85018945       0.94875950       0.91844630      -0.00572483      -0.11961089      -0.01654953       0.01981017      -0.01061398      -0.57412994       0.02657843       0.03952560       0.01992214      -0.13206934       0.87703721       0.89973023       0.96419175      -4.96537852
H        0.31715131      -1.33341420      -4.38986349       0.97159117       0.40005854       0.88161927      -0.07005943      -0.05987886      -0.02789025      -0.04781970      -0.01951761      -0.06477888       0.04318308      -0.00977977       0.04273799       0.03010291       0.99974624       0.43765962       0.85869463      -4.18743038
H        3.57899356       0.03580463      -2.00606537       0.54630464       0.14693207       0.64921027      -0.07101705      -0.06835734       0.00705315       0.01921856      -0.00168519      -0.06638011       0.00921160      -0.03111745       0.00749233      -0.04131886       0.55669492       0.18817645       0.65684150      -4.24359252
H        2.78094745      -1.17690504      -4.22595549       0.25710437       0.43051139       0.97674978      -0.21607131      -0.31341051       0.03229809       0.07873641       0.06747153      -0.24559684      -0.08942509       0.14445174      -0.06204340      -0.40514648       0.26763613       0.45510671       1.01014513      -3.63208956
H        1.47395992       1.74992299       3.49289584       0.59866369       0.90552992      -1.88497126      -0.17046252      -0.30801259       0.24227040       0.29218658       0.15387705      -0.38031657      -0.19456106       0.17219574      -0.15634584      -0.52187662       0.57995830       0.90111637      -1.83721209      -3.64624847
H       -2.14559102       1.19818604       0.65158367       1.37750268      -0.64988536       0.30204219      -0.21579880      -0.26236594       0.05127759       0.03718279       0.00748522      -0.19050269       0.04071445      -0.01089492       0.05228260      -0.16896250       1.36558649      -0.63848474       0.32948085      -3.55127459
H       -1.21271467      -2.96662402      -0.01418456       0.34194940       0.37998942       1.05092263      -0.19450296      -0.20332335       0.01715801      -0.02278525      -0.02073337      -0.20488467       0.00822947       0.01931413       0.10936797      -0.22760282       0.27963953       0.42080775       1.06990018      -3.55255262
H        1.27365661       0.57887518      -0.81739944       0.16548108       0.32565585       0.84667045      -0.11649678      -0.15116134       0.00917043       0.04756695       0.12008198      -0.40935866      -0.40460494       0.10658852      -0.27802997      -0.54687022       0.10820389       0.33124697       0.78804847      -3.99071630
H       -2.37965393      -5.31901932      -2.13357568       0.22989142       0.10614731      -0.28917930      -0.04362214      -0.01316542       0.01283499       0.01651171       0.03448025       0.07723022       0.04099451       0.01323564       0.03656243       0.03213192       0.21458957       0.13093665      -0.28556331      -3.94499631
H       -2.79580307      -4.89209509      -0.52683389       0.00152174       0.47109360       0.26553914      -0.04967209       0.03197151       0.02839747      -0.05219273       0.01013990      -0.01645278      -0.03686123      -0.04824724      -0.01481691       0.05549873       0.01020956       0.48346543       0.24398925      -3.98553804
H       -1.09038699      -5.03301907      -0.94501185      -0.11291012      -0.14807081      -0.01186311      -0.04777208       0.08301159       0.00642682       0.05120260      -0.02474836       0.02897223      -0.02785692       0.05865823       0.02341243       0.01728612      -0.12523111      -0.14112020      -0.01487878      -3.96180606
H        3.51186061       3.08305407       1.90824223      -0.16857222      -2.79456592       0.69958985      -0.04473413       0.03281477       0.03539624      -0.00480165       0.09938427       0.14925641      -0.03266933      -0.04309710      -0.05762231      -0.02120595      -0.15481176      -2.76236974       0.68481620      -3.93071519
H        3.45749259       1.17928755       1.45444405       0.59219658       1.03456485       0.22154072      -0.04324382       0.01638398       0.03790287       0.01299117      -0.08191166      -0.03236914      -0.00735793      -0.09302836       0.00561242      -0.00625606       0.62042392       1.06463076       0.26174439      -3.96765068
H        3.75790811       1.62477612       3.16693640       0.04221688       0.62211639      -0.62919718      -0.05468424       0.08599895       0.03805377       0.07374722      -0.05809240      -0.04820739      -0.05693419       0.10113419       0.00429750       0.04241930       0.00461190       0.61463940      -0.65364958      -3.98873461
H       -2.22029424       2.52835631       2.47975230      -2.74230242       0.12677063       0.13095012      -0.05856289       0.07373861       0.05177657       0.06270452       0.02262760       0.01408459       0.04768730       0.04072208      -0.04051337      -0.06297563      -2.76215366       0.13752560       0.15203918      -3.98253942
H       -0.89473528       3.36704302       1.62039256      -0.91793138       1.25355923      -0.46049908      -0.05127224       0.00181955      -0.00707044      -0.02894590       0.00574882      -0.02765698      -0.05985431       0.02919691      -0.07000543       0.03071671      -0.84448453       1.27793373      -0.47679984      -3.93739045
H       -1.22308874       0.91472828      -1.76123273      -0.03000750      -0.71632284       0.18015978      -0.05336535      -0.00872670      -0.00996140      -0.03062423      -0.00963079       0.12135850      -0.00745402      -0.08111060       0.02765210      -0.03375109      -0.03830914      -0.72541004       0.18599448      -3.98726858
H       -1.80789590      -0.32070127      -2.87283325       0.82855934      -0.17988110       0.71834379      -0.05393560       0.07556251      -0.00145146       0.00957251       0.01708222      -0.02894137       0.00832245       0.05781743      -0.02155048       0.10942565       0.75710918      -0.16448733       0.70396597      -4.01881517
H       -0.36365530       0.75443947       2.86598015      -0.45849732       0.62781131      -0.80323726      -0.04431814       0.01079815       0.01223195       0.07372720       0.01983935      -0.08739628      -0.20410473       0.01657740      -0.01190599       0.09353988      -0.46428068       0.70067151      -0.78820472      -3.98247502
H       -2.68694735      -0.79734206      -0.59681898      -0.05839460       0.33876851      -0.34436503      -0.06455415       0.05423630      -0.01755314      -0.02374426      -0.03174255       0.04174125      -0.02633978      -0.03860633      -0.00255045       0.03065666      -0.02133877       0.29805819      -0.35746336      -4.03551985
46
Properties=species:S:1:pos:R:3:original_dataset_forces:R:3:LES_q:R:1:LES_BEC:R:9:forces:R:3:energies:R:1 original_dataset_energy=-198.40672302246094 energy=-198.46138418108154 stress="-inf -inf -inf -inf -inf inf -inf inf inf" pbc="F F F"
O        2.69559622       2.72467732       1.78018439       0.33060020       0.92168969      -0.39046371       0.29523113       0.82301141       0.31050007      -0.22605138       0.11534307       0.71724988       0.21960252      -0.56555061      -0.14418653       0.80616663       0.35471439       0.96749200      -0.47711861      -4.61402080
O       -1.64343190      -2.03566885      -2.16497612      -0.01551700      -0.09857247      -1.56007421       0.29449567       0.94032221      -0.09321533      -0.20284981      -0.10904724       0.48234793      -0.06236319       0.05191994       0.02349864       1.52596301      -0.03169960      -0.06851158      -1.54765391      -4.65010899
O       -0.69707727       1.05185127      -1.69682062       0.89097315      -0.16659449      -0.30932012       0.26364318       1.43464373      -0.07460765       0.18274961       0.07046847       0.44484044      -0.14854868      -0.14428735      -0.17280493       0.69425775       0.82588403      -0.17145180      -0.34263118      -4.70143796
O       -0.94426334       2.18945384       1.15938854       1.20286095      -2.10202527       1.10480011       0.33368206       0.65510424      -0.23967421       0.17016723      -0.06972747       1.32805595       0.09885078       0.16445895      -0.16344293       0.47247914       1.14872061      -2.11070771       1.07323545      -4.44862126
O       -0.98423028      -2.59782100      -0.11931840      -0.30292624      -0.45111406      -0.14276014       0.32610184       1.28282188      -0.22494654       0.42681538      -0.36719359       0.62072128      -0.21072553       0.21620028      -0.08054589       1.21219341      -0.29974803      -0.44697608       0.02185692      -4.73106439
C        1.94787180       2.73586011       2.74404240       2.66708517       1.81664693      -1.57338226      -0.07710840      -0.96936664      -0.63998972       0.47601242      -0.67453916      -1.35483696      -0.23565989       0.63249010      -0.02653334      -0.99326222       2.61982173       1.74052206      -1.34564884      -5.33584495
C       -1.79200470      -2.09789872      -0.93586147       0.45315856       0.28213802       2.20457721      -0.06980192      -1.18582424       0.38926484      -0.32759813       0.70738462      -0.54299136       0.24302250      -0.23522655       0.17646306      -1.96049624       0.52594491       0.27531679       2.02596123      -4.97368872
C       -1.85920262       0.87992901      -1.41870260       1.01108027      -0.75274009       0.54021323      -0.10474935      -1.93485563       0.19905022      -0.43960889       0.20870561      -0.43352129       0.50594207      -0.35055063       0.49365063      -1.06687325       1.13035421      -0.76466810       0.58728369      -5.32951611
C       -0.54951167       1.00834203       1.41585791       1.07376289       7.29914236      -1.30257797      -0.07539955      -0.80476025      -0.06410007      -0.45406194      -0.04950999      -1.74442054      -0.24216841      -0.51963057      -0.03094789      -0.39671477       0.95350527       7.32639290      -1.33530935      -5.16017148
N       -2.84893012       1.30404210      -2.22825050       4.02230024       1.13247752      -1.90623009       0.11964260       0.89912443      -0.17210377       0.32439825      -0.40741317       0.36239798      -0.38801070       0.60010541      -0.34155631       0.90601757       4.00532710       1.08478196      -1.90758397      -4.61438875
N       -1.19145191       0.02405691       0.94160938      -2.77542543      -4.03106928      -2.76858687       0.09178705       0.55811148       0.38844616       0.30427690       0.09597138       0.93386974       0.16192887       0.34760664       0.25042647       0.43695344      -2.68911409      -3.97881337      -2.76861218      -4.70584464
N        1.23225594       1.68271089       2.98909807      -2.75193310      -1.00948370       3.87694240       0.08531889       0.59596156       0.37439320      -0.19505616       0.59094771       1.03546472      -0.01349216      -0.00203467       0.24084650       0.64180299      -2.85917941      -0.95713340       3.70426550      -4.78605153
C        1.83065426       3.92831969       3.66752958      -2.08196259      -0.89866745       1.31735778       0.10065158      -0.09490295      -0.04594203      -0.04041639      -0.07779982      -0.06861305       0.03010091       0.01162181       0.13153171      -0.04376971      -2.12246486      -0.87511429       1.26544463      -4.58688475
C       -2.62905836       1.49739289      -3.67998648       0.96167600      -0.33688867       0.29914442       0.06349488      -0.09063717      -0.01402284       0.08438288       0.11846948      -0.23260047       0.15165397      -0.01679623       0.06507435      -0.48584220       0.91665958      -0.30341501       0.32693219      -4.69074988
C        1.79349411      -1.52875614       0.91157579       0.14088522      -0.59051138       1.62498236       0.11121788      -0.10626271      -0.02106063      -0.02015635       0.02644680      -0.06178811      -0.01024931       0.03980078      -0.01477478      -0.00962986       0.23911450      -0.44488329       1.58865420      -4.44478446
C        2.46705294      -2.18945360      -0.32219809      -1.69520295       1.47123897      -0.53616017       0.09100837      -0.13867257       0.04335026       0.04401869      -0.14074335       0.02984184       0.00058780       0.01974215      -0.03408061      -0.12037481      -1.56497067       1.50320451      -0.52447213      -4.69214177
C       -2.90210128      -1.20489120      -0.36338592       0.75180972      -2.41381812       2.42638230       0.06511331       0.14119688      -0.12736825      -0.03859836      -0.28686576       0.02805481       0.09039616       0.04820275       0.03684468       0.01642301       0.76812090      -2.41745326       2.42622374      -4.70139908
C        1.87932336       0.00464115       1.17406702      -1.06170249      -0.73468840      -1.13388264       0.09691969      -0.00827867       0.01323700       0.09406459      -0.02921645      -0.13119515      -0.08171195       0.02969452       0.00503924      -0.09161569      -1.14788619      -0.73140376      -1.15281333      -4.44089039
C        1.70884812      -2.92262721      -1.42299831      -3.14385676       0.82197177       2.25387764       0.02411298      -0.22562024      -0.10405034      -0.27598633       0.01419532      -0.15230829       0.20870352      -0.07379122       0.00685061      -0.45435200      -3.16821014       0.73027377       2.22216752      -4.62488553
C       -2.25118256       0.12193462      -0.13388693      -1.27046156       2.41127682       3.05009794      -0.02127008      -0.37964182      -0.15473814      -0.22304341       0.02855241      -0.21098513      -0.03280046      -0.22589076      -0.02032788      -0.31600588      -1.25558914       2.42818690       3.07181803      -4.95154315
C        0.76611066       0.69831973       2.10834074       0.03608987      -2.94489455      -0.68545443      -0.03045697      -0.28238846      -0.22837695      -0.13872982      -0.13105960      -0.41617566      -0.24487848      -0.03049657      -0.26962442      -0.41696704       0.21230584      -3.14168506      -0.34525971      -5.03095862
N        0.92704570      -2.05964589      -2.43008518      -1.30815387      -1.97651684       1.85334527      -0.00299953       0.33692156       0.10696279       0.21110738      -0.03879050       0.08643963      -0.12323827       0.07004382       0.06219340       0.29068399      -1.35946830      -2.03581690       1.79187169      -4.12398126
H       -3.72571993       1.09306145      -2.04432440      -4.76506853      -1.27970707       1.47302353      -0.20525835      -0.29725314       0.01960551      -0.03802646       0.05321267      -0.22622888       0.03237692      -0.04416336       0.01995814      -0.23300486      -4.75836263      -1.28014369       1.47069646      -3.49500889
H       -1.07064712      -0.89981669       1.31290257       0.34481439      -0.38849711      -0.45636228      -0.19769995      -0.16244184       0.01970688       0.05661780      -0.02828766      -0.36071226      -0.05944352       0.03412222      -0.05219644      -0.24666260       0.31605663      -0.41497747      -0.48103100      -3.58821729
H        0.75316322       1.73888874       3.90688133       0.22897291      -0.30050007      -1.31624043      -0.20924830      -0.18623342       0.05836989       0.09690118       0.04338117      -0.13745710       0.07316308       0.02824979       0.00226821      -0.26088452       0.25367078      -0.23676642      -1.36633574      -3.50411470
H        2.72144437       4.44696760       3.84343243       1.67956376       0.12854789       0.29590085      -0.05198909       0.03798424       0.03599490       0.01219188       0.07352759       0.07638545       0.07866131       0.00838030       0.02315229      -0.00147172       1.68579142       0.09728534       0.27585145      -3.97304351
H        1.32451248       3.67171931       4.68385410       0.73310679       0.60893142      -1.85843277      -0.04036094       0.01197784       0.01025228      -0.07722927       0.03358225       0.04127212       0.00360011      -0.05038583       0.01513290       0.14601469       0.74789734       0.59233741      -1.86462122      -3.93802583
H        1.26717281       4.66664600       3.10405111      -0.63664323      -0.10348836       0.16557430      -0.04854935       0.00855755      -0.02299721       0.03041689      -0.02061598       0.10066582       0.03849802       0.02804927      -0.02072672       0.02025032      -0.60779635      -0.09762299       0.18354481      -3.94647841
H       -3.48402190       2.08959675      -4.02607012       0.34750995      -0.34964502      -0.23988603      -0.05536519       0.00378094      -0.02768870       0.03033049      -0.06665502       0.01527006      -0.08486044       0.01471942      -0.02370872       0.05796057       0.33408773      -0.36767848      -0.23634854      -3.98934790
H       -2.54850388       0.47793323      -4.18231058      -0.19139619       1.40920007       0.43491858      -0.04837817      -0.03679469       0.00106338      -0.03548623       0.01376730       0.04009455       0.09247383       0.02988969       0.01436366       0.08725085      -0.16288195       1.41256740       0.42427625      -3.99022711
H       -1.67846477       2.07250023      -3.85149336      -1.06585896      -0.65032530       0.23359223      -0.04047332       0.00895465       0.06072147      -0.10202862      -0.00613371       0.01820024      -0.06045518      -0.00940062       0.01283196      -0.00343161      -1.02668468      -0.67447054       0.20347220      -3.97784268
H        2.35909653      -1.89303350       1.74225032       0.38149190      -0.77076107       0.61902642      -0.06221863      -0.01288144      -0.02048832       0.02131144      -0.03376568       0.01904650      -0.00443383       0.00152761       0.00524541       0.06237713       0.34862005      -0.75833905       0.56774088      -3.83966850
H        0.82435393      -1.89056659       1.12841153      -1.07933295      -0.47927794      -0.43344948      -0.04352899       0.02208558       0.00756524      -0.08839360       0.00496853       0.00523109       0.00804774      -0.10637361      -0.02933343      -0.03399386      -1.14244357      -0.51820315      -0.42384427      -3.95031316
H        3.17584109      -2.90517974      -0.05471134       1.18206322      -1.04532886       0.94230527      -0.06598483       0.03438826      -0.04692597       0.02431389      -0.03445617       0.01050952      -0.00578262       0.00088130       0.03908366       0.02092659       1.19125633      -1.06147342       1.02515989      -3.87902632
H        3.00221467      -1.41080117      -0.77224249       1.21892798       1.19787526      -0.89382774      -0.05931956       0.02380132       0.01841563      -0.07207561       0.08878037       0.01736143      -0.02861351      -0.00643468      -0.02953515       0.01468666       1.18192441       1.22433294      -0.86414085      -3.88602435
H       -3.49198151      -1.69160080       0.52948385       1.52024686       1.22269511      -1.45735681      -0.04107814       0.15841269       0.09224048      -0.07373796       0.22141420       0.11203320      -0.03147064      -0.19878776      -0.10370867       0.07699813       1.52284177       1.20271456      -1.43691347      -3.97813774
H       -3.53196263      -1.15297985      -1.15303278      -2.39448285       0.60465336      -2.16747117      -0.05966201       0.05916335       0.04340808       0.06128768      -0.02538881      -0.03663365      -0.01462067       0.11089674       0.01275150       0.03746478      -2.40999600       0.62088699      -2.22094160      -3.86728153
H        1.84771502       0.32846433       0.16135061      -0.25075054       1.57998884      -0.53184211      -0.05316950      -0.06307149       0.00091927      -0.05069246       0.04268828      -0.02413533      -0.00387609       0.05217480      -0.04588144       0.09543418      -0.24821974       1.49843817      -0.54896812      -3.96185416
H        2.88115573       0.13728479       1.50839746       0.36679173       0.86414522       0.60685545      -0.04842491       0.10285928       0.02318929       0.03110332       0.04594752      -0.03450013       0.04193250       0.01250889       0.01969234      -0.00110904       0.42195362       0.80340666       0.59637580      -3.94251397
H        2.34211254      -3.50841761      -1.98294759       1.52309525      -1.15158474      -1.23742580      -0.06859115       0.02162174      -0.05654329      -0.01731063      -0.02317709       0.00671378       0.02108158      -0.01703832       0.04362667       0.04204460       1.51145354      -1.18217271      -1.19612291      -3.94226891
H        0.95303810      -3.59659076      -0.86806452       0.78021455       1.21366179      -1.45432329      -0.03341777      -0.07686713       0.06778555       0.06295779       0.10321303       0.05604558      -0.04345771       0.03974252      -0.05295032       0.02152920       0.84347879       1.23373726      -1.47310772      -3.90046888
H       -3.00306726       0.79353267       0.36825544       0.40210214      -0.45994782      -0.69433886      -0.04969842      -0.02820337      -0.00153447       0.02748899      -0.05412648       0.08919085      -0.00271223      -0.02128481       0.03724670       0.03980837       0.37712463      -0.41009075      -0.62967656      -3.95624427
H        0.33045527      -0.08080828       2.74443674       0.93082404      -0.46021250       0.42753619      -0.05421568       0.09580858       0.06384337       0.10036804       0.03165368       0.08714538       0.03362793      -0.03388085      -0.02556485       0.06182498       0.95564550      -0.42967455       0.35291370      -3.85399034
H        0.47342911      -2.67187333      -3.08497620       0.25753120      -0.53315198      -0.74686885      -0.18866834      -0.30636989       0.00221150       0.01682540      -0.01063075      -0.21022093      -0.04628982      -0.01796440       0.01597237      -0.18435760       0.34093767      -0.54840401      -0.79012722      -3.22748444
H        1.32149816      -1.30671775      -2.90503407       1.57428157       1.38452005      -0.70051879      -0.19740771      -0.22539561      -0.02621668       0.05408857      -0.03824055      -0.22586331       0.04701966       0.03926874       0.00422506      -0.21718884       1.56006582       1.37371220      -0.69960409      -3.38184959
H        0.00135785      -1.72297716      -2.08372188      -0.22149123       0.11148576       0.73963141      -0.10030092      -0.63989206       0.05609383       0.19294114      -0.00923745      -0.15926218      -0.00140852       0.03767097      -0.07553890      -0.24950366      -0.43856372       0.31246098       0.77314029      -3.50421940
48
Properties=species:S:1:pos:R:3:original_dataset_forces:R:3:LES_q:R:1:LES_BEC:R:9:forces:R:3:energies:R:1 original_dataset_energy=-211.84266662597656 energy=-211.85241002956695 stress="-inf -inf -inf -inf inf -inf -inf -inf inf" pbc="F F F"
O        0.97813928      -0.55166572       3.38333559       1.04978895       0.89448339      -0.00194983       0.24079466       1.12065397       0.30750174       0.15382189       0.39197192       0.66756229      -0.29841980      -0.08706427      -0.33144484       0.88559411       1.09839345       0.89938524      -0.01110889      -4.82845557
O        2.52438855      -1.77470541      -1.12496448      -0.36735365      -1.36522758       1.15416574       0.30143008       0.78892168      -0.00964477       0.46348567       0.07764350       0.92304229       0.04154662       0.28008663      -0.27351045       1.32819750      -0.40908984      -1.37049635       1.16758167      -4.65067747
O       -0.52562273       0.94816089      -2.13024545      -0.67798495      -0.26337415      -0.82687545       0.21658893       0.60325881       0.15137409       0.46139672       0.31065103       1.04081298       0.54800282       0.44901198       0.21404373       1.30712400      -0.69462898      -0.28136165      -0.83968279      -4.77806652
O       -2.54105163      -1.26343369      -0.11404425      -0.83206284      -0.07333145      -0.22719757       0.26937675       1.51501483       0.22560204      -0.11844669       0.13836893       0.43577535       0.12746444       0.18454605       0.16935839       0.55443337      -0.87199295      -0.03850774      -0.18704824      -4.71386236
O        2.48706245      -0.41723984      -2.81370664      -0.92619574      -0.42416674      -0.76015520       0.35447973       0.70965043       0.32467022      -0.23813261       0.26846220       1.29109266      -0.39055401      -0.11734950      -0.05509837       1.18672393      -0.90876820      -0.42990142      -0.74018733      -4.47602179
C       -0.07498826      -1.12915504       3.55416298       0.65315104      -0.80705357       0.92992604      -0.07926341      -1.52431327      -0.33897821      -0.71092983      -0.42959722      -0.51291226       0.37026740      -0.45651162       0.42242290      -1.31470696       0.61063508      -0.81111252       0.88899051      -5.37361038
C        2.03763390      -1.43681800      -2.21761274       0.88339084       2.15028453      -0.56826824      -0.07853158      -0.88755960      -0.49258136      -0.48319277      -0.54863245      -1.19808364       0.81285643      -0.34019366       0.69102234      -1.56524837       0.90215473       2.13672635      -0.61421483      -5.01443467
C       -0.74583399      -0.07101643      -2.78563142       0.16009407       0.66455114       1.05605495      -0.09475908      -0.41633523      -0.02032024      -0.70394530      -0.08848116      -1.18932042      -0.26005404      -0.66248450      -0.14528939      -1.81062832       0.16434464       0.55506910       0.98469102      -5.36929255
C       -1.37862515      -1.05129099       0.14626664      -0.24781434      -0.04651863       0.41548520      -0.07826962      -1.94933029      -0.20275158       0.37409867      -0.08908401      -0.26132757      -0.36548336       0.14882782      -0.39572841      -0.94075178      -0.21153541      -0.09446298       0.34407357      -5.28863100
C        2.02424812       1.18363833       0.39161795      -1.15022683       0.28330165      -0.80178183      -0.08733041      -0.84027688       0.61368923      -0.10013120       0.77990823      -0.88157214       0.05911873       0.19988796       0.15730747      -1.57343393      -1.13394159       0.35242698      -0.82543314      -5.51678672
N        1.74475658       1.48060918      -0.87354326       0.78441191       0.26374322       0.34042710       0.18026751       0.33358708      -0.20820845       0.14953866      -0.12256519       0.43361690      -0.11014690       0.11139874      -0.13116160       1.08133684       0.77834639       0.20975130       0.31739616      -3.90325620
N       -1.25477958      -0.05845875      -4.03078794       0.06068539       0.45179021       0.16558270       0.10607546       0.31689528       0.00533261       0.48834058      -0.10692475       0.48304281      -0.28695511       0.41045007       0.05590292       1.21171105       0.07328154       0.47782522       0.18187357      -4.71951709
N        1.46300519       1.75618172       1.44127607      -1.36435795       1.84130609       0.32645914       0.10743771       0.60623161      -0.26330529      -0.20440152      -0.29011163       0.55273744       0.23962133      -0.34755803       0.23319544       0.84830706      -1.35705878       1.85728197       0.33896152      -4.54112290
N       -0.35580197      -1.33212614      -0.67026883       1.01989031      -0.06027312      -1.39368331       0.13553455       0.76468250      -0.09778361      -0.25556677      -0.21174450       0.32089130       0.18924859      -0.42496192       0.16513793       0.85363777       1.03713331      -0.02128071      -1.40031914      -4.68638922
N       -1.05151963      -1.10021138       2.65807390      -2.27173901      -0.62737566      -1.09106243       0.10839119       0.76915127      -0.00123175       0.52612191      -0.02546867       0.45375118      -0.30623244       0.47899017      -0.28335610       1.11410020      -2.23204875      -0.60118400      -1.13837382      -4.75656427
N        2.83905602       0.21062905       0.66963917       1.73253989      -1.05142224      -0.36475471       0.15799269       0.72411296      -0.38243890       0.15769182      -0.60075104       0.74806221      -0.05054395       0.07265016      -0.03445585       0.54420505       1.77522566      -1.06283656      -0.24046207      -3.93846891
C       -0.29467064      -2.00947881       4.77606010       0.03101555       0.08899307       0.15590864       0.10694686      -0.05264729       0.02823217       0.07974335       0.06772078      -0.02002552      -0.12855870      -0.00847347      -0.10171962      -0.03050750       0.03017555       0.08611129       0.15086434      -4.58435953
C       -1.60811770       1.18415534      -4.74128866       1.00109422      -0.58936113       0.55961162       0.05752404      -0.16488039       0.07486332      -0.06760911       0.08040159      -0.36670351       0.16499629      -0.11331788       0.17702104      -0.42002790       0.98298638      -0.57842756       0.55175312      -4.85322231
C        0.30455244       2.67761278       1.44624639       0.26284206       0.28893685       1.78453970       0.01174551      -0.40818179       0.16569330       0.05149737       0.16605236      -0.39969988      -0.07062041       0.06745689       0.03999149      -0.17730964       0.23283886       0.28875996       1.78457199      -4.86830465
C       -0.90698916       2.12789130       2.27774048       0.93241364      -0.54979187      -0.63709366       0.10313632      -0.06332125      -0.08077675      -0.04201425       0.00565389      -0.11347097      -0.01285080       0.00215158      -0.02600811      -0.16902411       0.92115713      -0.55857236      -0.64055152      -4.66372962
C        0.76658601      -2.12793922      -2.72862935       0.48743320      -0.53162557      -0.17705920       0.05739248       0.15371029       0.11626338       0.05563511       0.11807570       0.00675740      -0.02743982       0.10881641      -0.02245945      -0.06335244       0.53528567      -0.55386877      -0.17091450      -4.83178865
C       -1.64783597       1.03556120       1.49011922       0.18356779       0.45335928      -0.04584232       0.09220563      -0.17102045       0.10211686       0.12973638       0.03228745      -0.08201817      -0.01113392      -0.00106777       0.00946915      -0.06597633       0.18551584       0.45782927      -0.03076308      -4.70515516
C       -0.48241878      -1.45514965      -2.14658856       0.61242491       0.17153385       0.96672851      -0.02596919      -0.20877043       0.04754326       0.09579996       0.06176240      -0.14674165      -0.10865258       0.06800361      -0.11308096      -0.59057956       0.61502545       0.18873196       0.97766727      -5.13989207
C       -0.95292610      -0.33059061       1.41771913       0.48677716       0.15313084       0.15298778      -0.01371185      -0.08541401       0.12070363       0.00329621       0.11819930      -0.35307737       0.36035900       0.08141096       0.32003092      -0.38917862       0.44150209       0.20131863       0.10023287      -5.14174979
H        0.84539783       1.82156038      -1.15812755      -0.11354108       0.03586659       0.11826179      -0.14428885      -0.43940716      -0.08805244      -0.15388010      -0.04954742      -0.24998908      -0.06018779      -0.16365850      -0.03862942      -0.30871899      -0.12427877      -0.00233300       0.18694762      -3.68590203
H        2.22352672       0.93240511      -1.59717155      -0.17968787      -0.24266142      -0.06497175      -0.12255646      -0.15828343       0.08977572       0.07582585       0.08076067      -0.50011061      -0.30798316       0.12147343      -0.30483492      -0.49674458      -0.17216176      -0.18388784      -0.11750527      -3.77647125
H       -1.40135396      -0.94572997      -4.45330143      -0.16971830      -0.29808757      -0.39149171      -0.21112686      -0.22221736      -0.02655320      -0.06198376      -0.02315555      -0.22343542      -0.04164482      -0.01608306      -0.05378347      -0.30081335      -0.16603864      -0.29998770      -0.38451970      -3.58109581
H        1.80955565       1.42152548       2.31631589      -0.39503071      -0.09630153       0.43167222      -0.18888089      -0.23707720      -0.05421576      -0.00543537       0.02647732      -0.24553114       0.16871036      -0.01401095      -0.00115626      -0.39090741      -0.36495531      -0.14585993       0.39697660      -3.59367140
H        0.59726477      -1.26425934      -0.30818900      -0.41566926       0.00456441      -0.43180421      -0.18940637      -0.38631424       0.00388855       0.02796826       0.06624981      -0.18347454       0.01697474       0.01004178       0.00958044      -0.12202618      -0.36272370      -0.02251251      -0.35093932      -3.67492317
H       -1.84122527      -1.75126624       2.76922226       0.65563709       0.81172502      -0.10175434      -0.21020736      -0.25307856      -0.04197408       0.05098208      -0.03900569      -0.23070036       0.02902843       0.03524940      -0.00572227      -0.19141416       0.64189539       0.78363840      -0.11498693      -3.60743986
H        3.07232404      -0.44076613      -0.09579098      -0.01294057      -0.30045539       0.24061853      -0.11707105      -0.16275584      -0.07543453      -0.08923084      -0.08831305      -0.51793590      -0.32911006      -0.03293282      -0.30735741      -0.42578599      -0.02018135      -0.29277024       0.17796906      -3.77677301
H        2.93899226      -0.06372085       1.62747502       0.09062354      -0.26230657       0.00960520      -0.17683120      -0.27497588      -0.00700251       0.01938422       0.07991174      -0.20123033       0.05074339      -0.03238969       0.05033026      -0.30521309      -0.00520248      -0.29611298       0.01466919      -3.55771062
H        0.65016377      -2.07671499       5.33271217      -0.43117100       0.34433064      -0.14878210      -0.04410682       0.05739080      -0.02306685       0.09137439      -0.00210965      -0.00196045      -0.02171803       0.03417866      -0.03911055       0.08132837      -0.42384945       0.36114606      -0.15166286      -3.95609631
H       -0.45800936      -3.02848005       4.39147615      -0.57470381       0.32483801       0.46117079      -0.04929030      -0.01837958       0.01506471      -0.00149654       0.02039025       0.07929744       0.00324030       0.01397963       0.03507480      -0.00559280      -0.57308783       0.33030247       0.45470967      -3.97908413
H       -1.10530400      -1.58734095       5.43205023       0.68724936      -0.81878150      -0.72893512      -0.05103549       0.04584283      -0.00333613      -0.12549764      -0.03846924      -0.01768298       0.04399011      -0.05854006      -0.02377944       0.13144614       0.68641914      -0.81649638      -0.71457064      -4.01450379
H       -1.81248462       0.97919130      -5.77769375       0.15070312      -0.20821200      -0.29792482      -0.05410650      -0.02101861      -0.01250905       0.02086883      -0.01638460       0.00882969      -0.03619911       0.05873014      -0.04788803       0.16182826       0.14404170      -0.21648167      -0.29387030      -3.98299091
H       -0.77526271       1.88269639      -4.63815022      -0.18179810      -0.08243086      -0.15370783      -0.04158001      -0.00106559       0.05696082      -0.06914038       0.00706875       0.05655395      -0.03171438       0.03004500       0.01140874      -0.01152093      -0.19148816      -0.06228478      -0.14715790      -3.97497980
H       -2.48191905       1.62341595      -4.31803989      -0.61346930       0.33148554       0.43475935      -0.05076223       0.04460102      -0.05533817       0.04241074      -0.03356314       0.03223091      -0.01215519      -0.03861310       0.01096273      -0.02602876      -0.60776064       0.33901152       0.42584223      -3.98093632
H        0.03123015       2.90163207       0.43827075      -0.26209158      -0.06922764      -0.58978695      -0.05196994       0.03646097       0.01011736      -0.00408146      -0.02092668      -0.02140228      -0.01665836      -0.00117361      -0.06363414       0.06822143      -0.26789431      -0.04723180      -0.53757270      -3.98551662
H        0.58608139       3.64742661       1.90277481       0.17697620      -0.53348064      -0.27590588      -0.05891045       0.03983393       0.02496316      -0.00386891      -0.01316102       0.08777777       0.01182293      -0.02224739       0.03469800      -0.00641583       0.19436897      -0.54347191      -0.29891644      -3.98163861
H       -1.62824833       2.92506337       2.49642277       0.42429864      -0.03002173      -0.12624606      -0.06175854       0.06975976      -0.02499551      -0.02938524      -0.05039899       0.09237830       0.06451596      -0.03023869       0.03229513       0.01332419       0.41712415      -0.02107385      -0.11615548      -3.97698641
H       -0.52537107       1.73656273       3.23598051      -0.17949097       0.22549041      -0.31602204      -0.05106113      -0.02058862       0.03019407       0.03652597       0.01918408      -0.01294846      -0.04983213       0.05132139      -0.01086299       0.10780075      -0.17473344       0.21437014      -0.31788160      -4.01127774
H        0.80771148      -3.18000340      -2.42043543      -0.18489797       0.31657168       0.04562748      -0.05174235       0.01382147      -0.00614448      -0.01336540      -0.03060438       0.17183605       0.06311060       0.00344968      -0.03392451      -0.00775980      -0.17223029       0.33006022       0.05245847      -3.98697427
H        0.70843452      -2.11169457      -3.82525516       0.12876551       0.18421514       0.35905877      -0.05430046       0.00822358       0.03661919       0.04975256      -0.01185914      -0.00460423       0.03509804      -0.01220226       0.04562891       0.17516020       0.09792630       0.19077058       0.36224273      -4.01521825
H       -2.59145951       0.89285457       1.99472761      -0.53450775      -0.12083963      -0.36525264      -0.05680571       0.10842874      -0.00035220      -0.07167812       0.03628692       0.00419906       0.00972939      -0.03802744       0.01333686      -0.01039405      -0.53312632      -0.10635672      -0.34586165      -3.98211036
H       -1.77766705       1.44967091       0.46737474      -0.29563096      -0.57078522       0.57304668      -0.04649771       0.02725275      -0.04976249       0.00732681       0.00407532       0.03648549      -0.04680100       0.04618735      -0.03457676       0.08361593      -0.32750174      -0.57949392       0.57960862      -3.98579058
H       -1.31183040      -2.08374310      -2.35687137      -0.86402327      -0.47395986      -0.10932978      -0.05841158       0.06648390       0.01803259       0.05670591       0.00997645       0.01377017       0.01403581      -0.00670386      -0.00700462       0.02174090      -0.88916052      -0.46683465      -0.09085433      -4.01542238
H        0.09120639      -0.17544657       1.26928091       0.59403789       0.21285178       0.31517348      -0.04121045       0.04324253      -0.00244370      -0.11591613      -0.03668147      -0.00454473      -0.04283185      -0.04254143      -0.01264164      -0.03977566       0.62966183       0.24468588       0.38143269      -3.88794109
49
Properties=species:S:1:pos:R:3:original_dataset_forces:R:3:LES_q:R:1:LES_BEC:R:9:forces:R:3:energies:R:1 original_dataset_energy=-214.375 energy=-214.32097751013671 stress="inf inf inf inf inf inf inf inf inf" pbc="F F F"
O        2.74079180       1.31122804       1.60913861      -0.71238917       0.90444791       0.00239645       0.30065069       0.84335225      -0.20147346       0.28494382      -0.48085369       1.04162420      -0.02765739       0.20910868       0.21518969       0.59250306      -0.71345995       0.91490570      -0.02244123      -4.66063908
O       -1.96738684      -1.78946567      -2.93772721      -1.22846913       0.98719174      -1.54006839       0.31384864       1.07862616       0.03582070      -0.10444178      -0.13685068       0.45847617      -0.27870575       0.09128559      -0.22756811       1.55417531      -1.19629961       0.98886978      -1.51458681      -4.56436294
O       -1.47766912       0.65954649       3.01421833       0.25090271      -0.80428576      -0.54956913       0.28104037       0.48297425      -0.30755133       0.06888553      -0.34733143       1.09338757       0.08365998      -0.17163841       0.41457283       0.87996989       0.21943422      -0.83102020      -0.55381910      -4.66017062
O       -1.51347470       3.02839279      -0.23209041      -0.10080127       0.15781827      -0.19159628       0.28624180       0.75907715      -0.33084220       0.03129800      -0.17682587       1.38828001      -0.17726426       0.05576962      -0.22537463       0.38555269      -0.07713283       0.17017319      -0.19419335      -4.66090220
O       -0.91555458      -2.66858029      -1.27237749      -0.41708255      -0.20498034       1.25970757       0.34160545       1.38734525      -0.22237111       0.25578763      -0.32542143       0.68820232      -0.17231776      -0.09654979      -0.20785223       0.92978149      -0.40970147      -0.20763280       1.35750138      -4.52276632
C        2.13750935       2.39357877       1.66535246       1.61249006      -1.29276168       0.87115294      -0.06900333      -1.23621662       0.38407930      -0.77572071       0.62239213      -1.13441489      -0.04783076      -0.79876471      -0.27187973      -0.89787261       1.64908872      -1.30089421       0.86706506      -5.36157699
C       -1.95386600      -2.09346294      -1.74253225       2.02881312      -0.66846627       0.40102839      -0.08598180      -1.38673539       0.44948471      -0.19463112       0.64179317      -0.40652936       0.53353672      -0.21664909       0.30023549      -1.79432838       1.97741245      -0.63447622       0.34812210      -5.10992214
C       -1.14100707      -0.31289354       2.33785534      -0.90063453       1.21362257       0.13053496      -0.07516947      -0.50430151       0.75623470      -0.28898795       0.74054905      -1.45458306       0.02259851      -0.07895181      -0.07018479      -1.18308006      -0.90604928       1.31063107       0.13839648      -5.33612350
C       -1.08197916       1.91129947       0.00926352       0.49979758       1.56720483       0.21126775      -0.10882746      -1.09585626      -0.14841716       0.04828263      -0.00908803      -1.93287738       0.38510393      -0.02184630       0.45878091      -0.21149021       0.46929484       1.53017625       0.25935489      -5.17641180
N       -0.44705373      -1.34048760       2.85028934       0.97139621      -1.23648739       1.04728222       0.11325473       0.39314607      -0.42514239       0.24947589      -0.31357931       0.79786306      -0.22854041       0.23013328      -0.32013169       0.67869244       1.03022995      -1.26810606       1.08627379      -4.65998686
N       -1.90768790       0.89292085       0.28365633       0.90501571      -1.64795637       0.09012706       0.13153194       0.61158588       0.49617188      -0.09321854       0.18831513       1.13434277      -0.31753763      -0.04996991      -0.30685776       0.32938674       0.93181815      -1.72896886       0.08180381      -4.68418449
N        1.13310623       2.71096492       0.86807859      -2.37509274       0.22239926      -0.98690468       0.10572700       0.94917809       0.01435906       0.55586222      -0.01246986       0.55876987       0.13384889       0.65955727       0.10210433       0.81516843      -2.41096711       0.21083326      -1.00660354      -4.76512276
C        2.50071096       3.45899391       2.67472720      -0.06924981      -0.39425844       0.13235503       0.10021209      -0.05846512       0.04606860       0.06025513       0.03975539       0.04595551       0.12408979       0.06231670       0.13493795       0.01424822      -0.09003478      -0.37119468       0.13621899      -4.66967989
C       -0.17738050      -1.45360315       4.33453703      -0.55591041       0.04742099      -1.27226043       0.05634705      -0.14203656       0.04747882      -0.17675097      -0.00415122      -0.16826665       0.09403925      -0.06623777       0.04807317      -0.46140561      -0.56077129       0.01764326      -1.24570831      -4.76020917
C       -3.09372854      -1.75617361      -0.81234330       0.03310551      -0.72849965       0.57256973       0.07022622       0.13227830      -0.06150761      -0.14942727      -0.03663962      -0.10030151       0.03514594      -0.16678167       0.01085670       0.01298902       0.05894000      -0.72775649       0.57679364      -4.88686848
C        0.86849964       0.68341076      -2.37616110      -0.19348177      -0.06475527       1.11017334       0.09429388      -0.10048458       0.00567433      -0.01109857      -0.03423130      -0.09635803       0.08232986       0.02584229       0.07505094      -0.07316982      -0.18577895      -0.09386352       1.04154577      -4.69969606
C        1.78929579      -0.50175667      -2.03658438      -1.31793189       0.58369368      -0.03938173       0.08866107      -0.11762326       0.06439193       0.18093682       0.07099562      -0.01679621      -0.00357245       0.02317581       0.06716493      -0.08047687      -1.33079622       0.60251588      -0.02501634      -4.73715907
C       -2.65616035      -1.42502737       0.61968529       0.84254050      -1.02210283      -0.06934137       0.09104071      -0.14181257      -0.05237051      -0.05020366      -0.07299679      -0.10341869      -0.01227145       0.04048830       0.02009516      -0.09086563       0.88562705      -1.02539744      -0.11548854      -4.77814438
C        1.05494034       1.87920642      -1.40350699      -1.33595550      -0.30470064      -0.80902547       0.09753967      -0.05414621      -0.01483462      -0.04851863      -0.02507415      -0.11886984      -0.01228215      -0.00645951      -0.03645144      -0.16349956      -1.30212520      -0.30429543      -0.78883396      -4.71499711
C        1.83742630      -1.44636464      -3.21792960       1.10442305      -0.69027472      -0.37436119       0.00749830      -0.31831519      -0.26053038      -0.21175761      -0.18207164      -0.26744600      -0.04175886      -0.10369574      -0.01286451      -0.14718121       1.14682926      -0.69972357      -0.36043447      -4.75585450
C       -1.51653743      -0.41883680       0.81382680       0.11221289       0.27655244       0.81147784      -0.01439738      -0.24177104       0.00542143       0.03284938      -0.12404212      -0.51728970       0.20203715      -0.04323035       0.10506486      -0.05360787       0.07982656       0.24396512       0.69650916      -5.12649742
C        0.44811559       1.74517226       0.00501576       0.72307462      -0.84210378      -0.27626771      -0.02947320      -0.17474150      -0.16822744      -0.09061311      -0.17301410      -0.27005916      -0.12594931      -0.14803208      -0.22921277      -0.46499565       0.67300953      -0.79894413      -0.28286956      -5.11836925
N        0.57637584      -2.24472666      -3.35544634       2.21102047       0.54217595      -0.30482954       0.00406893       0.48030762      -0.01517399      -0.22228625       0.12780232       0.21934245      -0.01997684      -0.01662970       0.13367510       0.31179464       2.21967993       0.59119940      -0.33810799      -4.28744992
H       -0.15322825      -2.12791777       2.27111220      -0.34589481       0.68653893       0.22757183      -0.21224712      -0.20527962       0.02017872      -0.00528230       0.00319821      -0.24619110      -0.00438359       0.02708862       0.00348921      -0.27135668      -0.34421144       0.68871274       0.23100488      -3.59848370
H       -2.88453436       1.11206281       0.27558294      -0.16627096       0.19519015       0.09646277      -0.20296095      -0.29556582      -0.06108646       0.01714913      -0.02894813      -0.19459754       0.00016610       0.00710971      -0.00399839      -0.21122354      -0.16092989       0.21181430       0.07158646      -3.60432565
H        0.68600070       3.61121154       0.94504011      -0.00695358      -0.12452897       0.07552379      -0.20600364      -0.24418546      -0.02820999      -0.00387909       0.01295330      -0.30264712       0.00374232      -0.01013352      -0.05051687      -0.19715795       0.00035604      -0.14670899       0.05444892      -3.59634924
H        2.26226616       4.44678116       2.26576734       0.61790454      -0.06995263       0.23068498      -0.04877031       0.00153218       0.00565827       0.03921642      -0.03081335       0.07045028      -0.03393255       0.01482111      -0.01455839       0.01126051       0.61918366      -0.07883282       0.22554181      -3.97496136
H        3.53692102       3.25691938       2.98648691      -0.42988122       0.63645351      -0.23763840      -0.04664933       0.08313852       0.02543626       0.05330192      -0.00901145       0.02025667       0.02226408       0.05048497       0.04411172       0.01941958      -0.43585307       0.61373038      -0.23406989      -3.97732115
H        1.85610926       3.33084011       3.55076432       0.09606462      -0.08336016      -0.12447318      -0.04921575       0.01963285       0.01370860      -0.04225675      -0.00542869      -0.02498923      -0.00997304      -0.04030354       0.00702100       0.06931164       0.12267469      -0.07130287      -0.11357193      -3.97378906
H        0.47495162      -2.30467415       4.55813980       0.09704795       0.43299511      -0.43135244      -0.05379014       0.00438150      -0.05552481       0.08767813      -0.04584390       0.04305328      -0.08657544       0.01662884      -0.03607086       0.07962944       0.08657097       0.42727755      -0.42918711      -3.99407111
H       -1.12514913      -1.68528104       4.80853415      -0.10693275       0.26813859       0.24686113      -0.04826989       0.03950166       0.02839488      -0.07763615       0.00444150      -0.01444076      -0.01940950      -0.00537122      -0.01550396       0.06381629      -0.09997663       0.26400712       0.25421606      -3.97616737
H        0.21789205      -0.50705856       4.71240091      -0.05273389      -0.34838340      -0.11634793      -0.04468921      -0.03212446      -0.00475561       0.06470145       0.03865573       0.00458519       0.11422087       0.00274711       0.00084344       0.03714444      -0.05919292      -0.34280575      -0.10643049      -4.00529394
H       -3.76615429      -2.63328886      -0.76692098       0.37276730       0.29095912       0.00752964      -0.05190980       0.07402001       0.07316279       0.00790379       0.04171259       0.03922253       0.01726764       0.04953907       0.04305748       0.04993644       0.37020607       0.28501873      -0.00842300      -3.96853607
H       -3.69603252      -0.97911417      -1.21791792      -0.25983024       0.72304809      -0.52249432      -0.05652530       0.10331901      -0.02493458       0.05218954      -0.05083943       0.03875243      -0.03297089       0.06571291      -0.00952566       0.03930067      -0.26605362       0.74361201      -0.50156078      -3.98795865
H        1.09447253       1.02023125      -3.39020205      -0.08221181       0.01485388       0.08854747      -0.06046144      -0.02561224      -0.00100247       0.03123126       0.00955841       0.03244347      -0.00801367       0.00133817      -0.00355408       0.10799139      -0.08255797       0.02212768       0.08422899      -3.95683962
H       -0.16365212       0.30870831      -2.35361624       0.05431562       0.39149764      -0.13709994      -0.04961355       0.08828875       0.04030961       0.02935265       0.04796382       0.00189541      -0.00153908       0.00487110      -0.00724313       0.01267201       0.04738315       0.41106597      -0.09449905      -4.02752857
H        2.76011753      -0.08176225      -1.85503948       0.65956032      -0.17861675       0.07077318      -0.06302766       0.06551857       0.03441914       0.05926109       0.01138357       0.03846191       0.06505001       0.02913878       0.02216065      -0.00471138       0.66492602      -0.17869053       0.06120899      -3.94632886
H        1.44797122      -1.01590908      -1.10814774       0.31868005       0.24629122      -0.74952924      -0.05070991      -0.04293823      -0.01969626      -0.03891062      -0.04773566       0.02383580      -0.03649318      -0.02133524      -0.05949430       0.09998083       0.25813011       0.22818100      -0.75348930      -3.98820219
H       -3.49793625      -1.05803943       1.15049040      -0.91022962       0.44389278       0.55482441      -0.05858816       0.05718385      -0.03955733      -0.03121684       0.01733840       0.00464700       0.03049087       0.01829366       0.07194650       0.06638219      -0.90061257       0.44485219       0.54587899      -3.95429628
H       -2.39141655      -2.36757016       1.12690020       0.12049560       0.46597371      -0.24184093      -0.05164326      -0.01313431      -0.04978067       0.03378992       0.01005722       0.07182349      -0.07687558      -0.01393626      -0.06990380       0.04448563       0.10826440       0.42765421      -0.21552141      -3.96822829
H        0.55966616       2.73902893      -1.85906327       0.30412748       0.15057111       0.03968696      -0.04889494      -0.01589696      -0.04443887       0.03964501      -0.02627373       0.09959983      -0.03599772       0.01800538      -0.00617169       0.03593705       0.32561002       0.14447709       0.00917582      -3.97148444
H        2.10515022       2.07886934      -1.28273213       0.36500886       0.12194462       0.01987437      -0.05258102       0.09466787       0.03561460      -0.01452538       0.04662041       0.00385287       0.00389782       0.01421322       0.02738196       0.02622326       0.35892417       0.13109014       0.02574816      -3.96873917
H        2.04320097      -0.92975742      -4.19456100      -0.28004766      -0.40275681       1.06195152      -0.05895572      -0.02199196       0.04569943       0.02057807       0.03886836      -0.00645980      -0.03660224      -0.02657322      -0.02537718       0.07606097      -0.29051689      -0.40192965       1.06472008      -3.95862373
H        2.67519665      -2.13789511      -3.01063895      -0.56089932       0.01967797      -0.50561631      -0.06147341       0.05002037      -0.03390100       0.01721606      -0.06874646       0.04806754       0.05864177       0.03280460      -0.00236345      -0.04237592      -0.56332113       0.01859952      -0.51634239      -3.95455580
H       -0.59231186      -0.77607179       0.37698504      -0.20875199      -0.06080178      -0.69799602      -0.06087315       0.07707321      -0.00196553      -0.02233998       0.02205627      -0.03078489      -0.06447665      -0.02976847      -0.04640409      -0.03867480      -0.19277161      -0.00255485      -0.69430549      -3.99094054
H        0.69674742       0.76579344       0.36834255       0.32215834      -0.27380762       0.37794688      -0.05394258      -0.04317392      -0.06847515      -0.02713945       0.01193950       0.08066711      -0.01307311      -0.02006324      -0.02962842       0.01532829       0.33244295      -0.28000531       0.42097275      -3.98687010
H        0.53028750      -2.82596517      -4.16392040       0.26149508      -0.58808678      -0.55264890      -0.19758624      -0.23071438       0.08267941       0.13320068       0.00052532      -0.25618650      -0.08713278       0.00994226      -0.12382442      -0.35407742       0.27254955      -0.59608719      -0.58173205      -3.34167693
H       -0.26271993      -1.70863879      -3.38114548      -1.80494404       1.18319964      -0.15295033      -0.11315230      -0.68288467      -0.04752214       0.00602761       0.00736299      -0.18363739      -0.03844306       0.13114253       0.05030293      -0.19830267      -1.84828116       1.16801614      -0.13204347      -3.42567022
H        0.34889776      -2.75484014      -2.51158428      -0.46188354      -0.74422497       1.14592314      -0.12056772      -0.45014155      -0.02115410       0.21982296       0.01204367      -0.20071397       0.03942557       0.26136197       0.05639941      -0.41928878      -0.48101688      -0.71995810       1.19096254      -3.44433534
45
Properties=species:S:1:pos:R:3:original_dataset_forces:R:3:LES_q:R:1:LES_BEC:R:9:forces:R:3:energies:R:1 original_dataset_energy=-204.78163146972656 energy=-204.7353733945916 stress="inf inf inf inf -inf -inf inf -inf inf" pbc="F F F"
O       -2.52380252       0.46578401      -3.98694420       0.49329740      -0.73448259      -0.30544418       0.27881315       0.38525485      -0.16190361       0.05520172      -0.06753701       1.03791359       0.46884492       0.22433156       0.14485001       1.04023326       0.49053930      -0.75564401      -0.27839572      -4.70272583
O        2.70956898      -2.77739716       0.28106493       0.08025318      -0.57271159       0.22211786       0.32538363       1.00816368       0.00130904       0.20663203      -0.17076443       1.58894833      -0.26871025       0.30898255      -0.18860529       0.67620190       0.10905148      -0.56433037       0.20619377      -4.59372447
O       -1.32759237       2.14514637       0.49834639      -0.24875438       0.16253380      -0.09499303       0.28521252       0.82456130      -0.33978891       0.05769529      -0.52119761       0.98848315       0.22704031      -0.17921319       0.44721079       0.64497477      -0.22908090       0.13184549      -0.10069392      -4.67370242
O        0.09250671      -0.51472467       2.64520741       0.50903517       0.37683511      -0.20285484       0.26798820       0.81082935       0.51343689       0.33764807       0.58614418       0.95511029       0.30197737       0.06164806      -0.02365566       0.83897560       0.47752364       0.42166080      -0.21281393      -4.73116131
O        1.97342992      -1.15089059      -1.03879809       0.95263028       0.19211559       0.87025213       0.32891005       0.92301674      -0.34001514       0.36167648      -0.14941326       0.98351439      -0.02621604       0.39152351      -0.29132590       1.08995874       0.87934991       0.14714738       0.86253241      -4.60497819
C       -2.64957333       1.52072001      -3.39481783      -0.53674901      -0.76661521       0.21471009      -0.08429468      -0.26443627       0.23618376      -0.33223662       0.22988333      -1.16254993      -0.33871777      -0.53390221      -0.20318646      -1.90614770      -0.52714569      -0.73170585       0.20792776      -5.35908826
C        2.61770225      -1.56913269      -0.01455575      -1.57309568      -0.01820034      -0.71320814      -0.08436757      -0.62092674       0.20974006      -0.65401358       0.33820857      -1.77831682       0.36075366      -0.87570750       0.48650705      -1.28648457      -1.51248461      -0.03919015      -0.69317260      -5.06469382
C       -0.82186323       1.22749376      -0.14104038      -1.17746592       1.32225335       0.72775751      -0.08395297      -1.43093789       0.68988193      -0.32447610       0.73274308      -0.94105888      -0.37072142      -0.14192436      -0.51327974      -0.71287262      -1.24320559       1.35888536       0.71513584      -5.31574429
C        0.87660515       0.43520397       2.59272671      -1.49234450      -1.45623255      -0.22058022      -0.08876458      -0.72742294      -0.71133630      -0.47212866      -0.76808542      -0.94572558      -0.30411226      -0.44637339      -0.18878671      -1.62571748      -1.52899220      -1.57938977      -0.20569140      -5.34380436
C       -0.97154093      -2.37888217       0.20041782      -0.60685116       1.31087065      -0.38803843       0.01018903      -0.03562474       0.00773798      -0.06831873       0.02263909       0.04845907       0.04304695       0.11973090      -0.15857693      -0.18664000      -0.59663136       1.28768106      -0.44255179      -5.37612983
C       -1.62612164      -1.85936427      -0.88757044      -0.53128964       1.19187701       1.36155283      -0.03608625      -0.13646480       0.28988879       0.15202680       0.19725684      -0.16043774      -0.08188200      -0.08466097       0.02884135      -0.21495904      -0.57671730       1.19095665       1.41351643      -5.40004499
C        0.03639212      -3.06215024      -1.62393641       1.73525262       0.47661835      -0.03463305      -0.11779544      -0.27167944      -0.01256858      -0.22140896       0.05994100      -0.17842020       0.13039522      -0.18233947      -0.02472962      -0.51288619       1.75689807       0.48820190      -0.03200232      -5.50564377
N        0.07533222      -3.10886836      -0.29046631       0.31368908      -0.40612480      -0.56672722       0.02425528       0.32546592       0.00234847       0.17396503      -0.10967206       0.05611762      -0.16494384       0.16607792      -0.01409274       0.45238091       0.25069282      -0.36186403      -0.60917097      -5.11649279
N        1.45582414       0.89859778       3.70465112       0.39801550       0.19096100       0.66326725       0.11371794       0.38126548       0.23682746       0.24025528       0.19790491       0.41678593       0.00564147       0.52383349       0.30765079       1.31338088       0.41296997       0.22357937       0.69248027      -4.70292208
N       -2.34615779       1.63070750      -2.08058572      -0.25074044       1.76338494       1.48958230       0.13339463       0.41202636      -0.10038400       0.39663746      -0.14171365       0.58208327      -0.21333700       0.53852918      -0.12543211       1.48951335      -0.24449008       1.70660350       1.49522462      -4.72540398
N        0.37494218       0.73458153       0.15200549       0.62421203      -0.99581873       0.09413583       0.11602845       1.19693464      -0.40859514       0.22657186      -0.29515605       0.45782596       0.12782432       0.28432618       0.02679202       0.56093078       0.59111353      -1.04513776       0.04274080      -4.80791055
N       -1.01925218      -2.34570551      -2.04020953       0.72371763      -0.25139126       1.85525751      -0.00497712       0.23474488      -0.21057176       0.13464532      -0.11444931       0.17433713      -0.06189594       0.10175767      -0.11063297       0.38730367       0.76950242      -0.29097114       1.86132696      -5.10981700
C       -3.22070122       2.72387648      -4.07078934      -0.41079253       1.19240916       1.10834420       0.09883079      -0.12049056      -0.06325727       0.04266633      -0.03625652       0.05096937      -0.01967511       0.04611725      -0.05428683      -0.02036303      -0.42071069       1.22083288       1.11168698      -4.67671879
C        1.44998169       0.14800543       4.97687578      -0.21204095       0.20825472      -0.87793952       0.05747310      -0.12774836       0.00049792       0.01106588      -0.02138072      -0.23183507       0.06383098      -0.01124149       0.11780137      -0.47770575      -0.20182801       0.21313244      -0.87457062      -4.80070739
C        3.16732144      -0.59578723       1.01356530       0.64307535       1.24736941       0.12352879       0.07676534      -0.04499480       0.04843864       0.06849215       0.02144934       0.00477334       0.07473993       0.12154738       0.12971497       0.10956625       0.62154898       1.26810809       0.09952618      -4.85571520
C       -2.49094367      -0.61000144      -0.85602224       0.36936426       0.06960575      -0.11084221       0.04084849      -0.17096202      -0.10028638      -0.01423249      -0.12018724      -0.03168051       0.00148645       0.11914944       0.03700638      -0.08818366       0.40102778       0.06675947      -0.09950438      -4.81737431
C        2.71008539       0.86632878       0.92650098       0.55748135       0.08538906      -1.48708797       0.10192444      -0.13469649       0.07150089      -0.00884676       0.01779450      -0.14888354      -0.02108504      -0.04216237       0.03326397      -0.01289382       0.56867906       0.09409089      -1.49138253      -4.72293778
C       -1.61693335       0.62888211      -1.32938230       0.85868549      -0.67174673      -0.39172590      -0.01574225      -0.27071631       0.09236929      -0.02800977       0.18171447      -0.38021460       0.35826313      -0.15182190       0.32500639      -0.33424828       0.83616826      -0.60172615      -0.40561530      -5.01354628
C        1.24424982       1.10925889       1.27461481      -0.65657115       0.57147539      -0.51460129      -0.02511283      -0.48111959      -0.03738685      -0.23914632      -0.00266514      -0.14308009      -0.08342455      -0.17718595      -0.10485428      -0.31818983      -0.68001017       0.55505581      -0.48497938      -5.15757377
H       -1.08263206      -1.99671006       1.22650170       0.27776206      -0.73467445      -0.61675876      -0.05908049      -0.06809769      -0.06461504      -0.01345574      -0.06585410      -0.11074259      -0.02553860      -0.01736659      -0.02059563      -0.04978040       0.28314794      -0.69357094      -0.56430484      -4.21505130
H        0.96601534      -3.17969084      -2.20060015      -0.94171661      -0.53466386       0.19378312      -0.05456258      -0.05520331      -0.07020969      -0.03809718      -0.04713615      -0.03054674      -0.00254520      -0.02963144       0.06491375      -0.01543486      -0.90743409      -0.53058746       0.19141342      -4.22124583
H        1.00636625      -3.25135493       0.19486898      -0.32007921      -0.07465006      -0.50472528      -0.15040946      -0.90390610       0.01715947      -0.13930859      -0.10873120      -0.31770518       0.00692424      -0.11107718       0.10904544      -0.24260931      -0.30478469      -0.10447153      -0.50316020      -3.85405426
H        2.08585048       1.66513181       3.61345935       0.25610626       0.23513323       0.04016835      -0.21153100      -0.23127365      -0.01806941      -0.00313087      -0.01574901      -0.22765538       0.01119497      -0.04529082      -0.03863184      -0.29352307       0.27126284       0.23428543       0.06217247      -3.56796915
H       -2.50471091       2.53678370      -1.61384284       0.20867407      -0.95643872      -0.28679016      -0.20144841      -0.22510284       0.01704278      -0.00981216       0.03675055      -0.25002529      -0.01536538      -0.04509857      -0.01189584      -0.24827858       0.21442180      -0.94570486      -0.28876630      -3.61552272
H        0.74147296      -0.03193510      -0.40196759       0.32585880      -0.11146723      -0.25041088      -0.14106137      -0.39854332       0.29423975       0.16326961       0.29619141      -0.39250852      -0.12665434       0.21455936      -0.16328545      -0.22840924       0.36099113      -0.08002992      -0.24721044      -3.86249815
H       -1.06756902      -1.92039084      -2.94256115      -0.31732380       0.06917179      -0.45799437      -0.21335343      -0.26470767      -0.01514763      -0.07217976      -0.01882433      -0.33672961      -0.02226209      -0.06219052       0.01463716      -0.39697385      -0.35291886       0.06654332      -0.43361363      -3.66635255
H       -4.08902550       3.14124799      -3.50705409       0.92999202      -0.08787268      -0.10232943      -0.04561936       0.06682283      -0.05708157      -0.02456845      -0.05085295       0.01852669       0.00647381      -0.06484485       0.03530930      -0.00910963       0.92540948      -0.08258159      -0.10740306      -3.96702408
H       -2.41638494       3.46001363      -4.17324686      -0.37757903       0.12773269       0.07180242      -0.05077821       0.02769161       0.05264548      -0.01550608       0.03288453       0.05407137      -0.03547897       0.00129018      -0.02017072      -0.00898887      -0.37923492       0.11860345       0.07628969      -3.98238876
H       -3.61879134       2.50582433      -5.02861643       0.01434661      -0.55319142      -0.85831630      -0.04770299       0.01568388      -0.01679614       0.05767714      -0.02656249       0.01526895      -0.01970559       0.07373977      -0.03096401       0.11973401       0.02215531      -0.56268201      -0.85427737      -3.95789882
H        0.45226884       0.13095146       5.40994596      -0.04579628      -0.10629050      -0.16019574      -0.04779627       0.02493296       0.01356173      -0.11054152       0.02021185      -0.00231245       0.03670444      -0.01202027      -0.02801383       0.02343256      -0.05394434      -0.10405972      -0.18636176      -3.98884493
H        2.08735466       0.69049150       5.67826271       0.14755687      -0.44217804      -0.20449249      -0.05415491       0.00314874       0.01127193       0.05473761       0.02523989      -0.00808260       0.01627870       0.05421792      -0.00345364       0.13319523       0.14512991      -0.45138863      -0.21504422      -3.98517502
H        1.76235938      -0.88364679       4.73861647       0.01138777       0.49628666       0.57013738      -0.04460679      -0.01723496      -0.00092579       0.03324666      -0.02128385       0.06720166      -0.05136013      -0.02114740       0.02020403      -0.01630107       0.01896081       0.51802003       0.55759643      -3.98733583
H        2.93796206      -0.89148068       2.01293087      -0.42328781      -0.91353661       0.55012155      -0.05231445       0.00230025       0.00302043       0.01681252       0.00954365       0.03179039      -0.00871951      -0.04028074      -0.00632520       0.06855317      -0.40548587      -0.91326395       0.55477322      -3.95763082
H        4.25915623      -0.65816343       1.01734948      -0.05870974       0.11099337      -0.36729649      -0.05185245       0.14029545      -0.03297831       0.01980576      -0.06467416       0.03835208      -0.00121822       0.06529399      -0.00084588      -0.00315215      -0.04098146       0.11650834      -0.34708299      -3.97267565
H       -3.29325366      -0.76202863      -1.57351232      -0.23137164       0.40859592       0.14654984      -0.05629066       0.09735867       0.01147359       0.04897659      -0.00110847      -0.00709270       0.00193179       0.05901342       0.00759218       0.00211268      -0.23939129       0.42401570       0.13395361      -4.04151361
H       -2.88797712      -0.38248581       0.17640144       0.38587257      -0.54850119      -1.22990727      -0.05722913       0.02555297       0.00245811      -0.04896536      -0.04237266      -0.00822910       0.01343734      -0.07638365      -0.00695689       0.08370098       0.41223142      -0.54526522      -1.27016892      -4.04298585
H        3.30392385       1.52922106       1.55156755       0.17752485      -0.28004554       0.27498129      -0.06104916       0.03756357       0.02245122       0.03694624      -0.03284694       0.09549129       0.02773772       0.04641567       0.06184364       0.03680475       0.19017165      -0.26504177       0.27941082      -3.97246277
H        2.91130471       1.23067832      -0.10250515      -0.39624411      -0.13242298       0.53376085      -0.04690917      -0.01679985      -0.02188278      -0.02630291       0.01944247      -0.00186657      -0.03943746      -0.06970291      -0.07463090       0.08749371      -0.40357491      -0.14191249       0.54586414      -3.94956969
H       -0.83663213       0.33473974      -2.02528715      -0.06443095      -0.77711046      -0.10118370      -0.04502686       0.06396356      -0.03286135      -0.01992206      -0.02360897       0.06506587      -0.02741629      -0.08665007       0.01123940       0.02962272      -0.06245018      -0.78809508      -0.08953479      -3.96984569
H        1.11347890       2.17112494       1.43842983      -0.11462203       0.31578955      -0.06320335      -0.05416733       0.01151262      -0.02882397      -0.01204315       0.01214006       0.06460990       0.04589526      -0.01386759      -0.00221492       0.02178302      -0.09745030       0.32609703      -0.07229241      -3.98688614
48
Properties=species:S:1:pos:R:3:original_dataset_forces:R:3:LES_q:R:1:LES_BEC:R:9:forces:R:3:energies:R:1 original_dataset_energy=-208.4431915283203 energy=-208.42593653498574 stress="-inf inf inf inf -inf -inf inf -inf -inf" pbc="F F F"
O        2.69353962       2.04182339      -0.03360119       1.79321408      -0.01456061      -0.20472695       0.27561626       0.79271152      -0.45648030      -0.40817136       0.18632632       0.95899675       0.16263167      -0.20070976       0.31689979       0.52277685       1.74660278       0.02231556      -0.14948178      -4.67623892
O        0.85516757      -1.12058759       2.10804701       0.71484113      -0.72611088      -1.58868992       0.38990083       0.75177383      -0.20683733      -0.25954955      -0.03589290       1.27749487       0.31662273      -0.13135816       0.50433916       1.02339233       0.57321384      -0.55038602      -1.34258620      -4.49590507
O        1.03602314      -0.62125844      -2.48477674       0.89969474      -0.45633191      -3.07030106       0.26853177       0.68537804      -0.00885510      -0.02044013      -0.03353497       0.31338715       0.05805189      -0.41273041       0.12447118       1.40369637       0.88647734      -0.47930177      -3.24527362      -4.61289214
O       -3.41900754      -0.77422249       0.22409305      -1.27286434       1.72841501       0.20209640       0.27077451       1.07214498      -0.25417239      -0.04404778      -0.34386110       0.92153764       0.01430607      -0.32762006       0.12181168       0.74138519      -1.25879616       1.61023717       0.19050341      -4.63911125
O        0.48388314      -3.13878703       1.27124441      -0.68923503      -1.18092203      -0.75356507       0.33882064       1.05952057       0.49327607       0.05361700       0.32724266       1.38007228       0.13909068      -0.04950232       0.01880291       0.58832261      -0.78076364      -1.10620619      -0.58966477      -4.60104828
C        3.62567425       1.37713790      -0.55352575      -3.34337997       1.96377611      -0.07685929      -0.09305523      -0.89958021       0.15723563       0.31450123      -0.48738236      -1.77166869      -0.38579379       0.10696020      -0.56139340      -0.33418028      -3.20232345       1.88769481      -0.14408886      -5.25581852
C        1.10107720      -2.08189392       1.25588810      -1.45974338       1.03335977       3.17854953      -0.06718823      -0.76810529      -0.48254345       0.38229157      -0.39818912      -1.82985630      -0.46001863       0.38119270      -0.58541076      -0.79546237      -1.27977366       0.76863798       2.75039227      -5.01098035
C        0.92354828      -0.57169110      -1.30151534      -0.33164623       0.68532670      -0.88515133      -0.09163203      -1.40313517       0.06519506       0.33281670       0.09291508      -0.12919908      -0.12002216       0.44423927      -0.11969778      -1.58902898      -0.31375068       0.69668525      -0.68454168      -5.22618455
C       -2.50916290      -1.42378426      -0.28197834      -2.11340594       4.83116722      -0.07248800      -0.08673072      -1.25290868       0.27000781       0.38597501       0.74910712      -1.26282698       0.25199016       0.49973024       0.27448559      -0.58882032      -2.29856570       5.32251340      -0.20747997      -4.98479443
C       -0.79765689       1.48643374       1.64678514       3.34397531      -0.47198880       0.90288270      -0.09204067      -1.29414215      -0.43813224      -0.43488811      -0.29974396      -1.19960400       0.59736190      -0.38239547       0.48267117      -0.93256172       3.42557616      -0.66933778       0.98344269      -5.35347309
N       -1.33238101       0.42875922       2.12366366      -2.97260833      -1.65806103      -0.07552842       0.13208736       0.61191614       0.28616670      -0.00361052       0.27132530       0.86076655      -0.31042450      -0.16961051      -0.26207234       0.56624751      -2.98579027      -1.46485649      -0.18431862      -4.02242792
N       -2.29800677      -2.57701206       0.18066916       5.22212648      -6.21813440       1.83077979       0.10424430       0.54744365       0.08530765      -0.11029972      -0.23462598       1.12998619      -0.25445393      -0.06449419      -0.40027132       0.42970671       5.34713189      -6.51030737       1.75410216      -4.52770912
N       -1.27744234       2.23021293       0.72774422      -3.06032634       2.14126062      -3.76579905       0.09434197       0.40510575       0.00787895       0.29314711      -0.16534611       0.57689552      -0.35440336       0.28465387      -0.19840689       0.75373964      -3.15014583       1.94651152      -3.87434605      -4.30137085
N        3.36730433       0.12419629      -0.87753963      -1.51039314      -3.23485422      -0.29921016       0.10965016       0.79705960       0.31806008      -0.09467571       0.61072291       1.25825234       0.12092171      -0.03620030       0.16310949       0.28424846      -1.61506900      -3.16716648      -0.29195388      -4.72700332
N       -0.32313588      -0.52441663      -0.78758574      -0.89719427       0.61143690       2.13228083       0.13797024       1.30836270       0.14042454      -0.38073593       0.09586598       0.28842016       0.01840726      -0.11343335       0.07157592       0.52494582      -0.66932087       0.63324749       2.01259441      -4.67534482
N        0.43618834       1.84015656       2.00477242       0.50529319       1.58726287      -0.03335649       0.18265721       0.92735906       0.21574462       0.25209321       0.22234662       0.42474563      -0.12252518       0.23915447       0.03981937       0.50870844       0.38074214       1.50982065       0.07487186      -3.81469111
C        4.97036409       1.87083077      -0.86179101       0.53098208       1.51865900      -1.05503726       0.08578203      -0.22468088      -0.10582220       0.03977738       0.00319787      -0.04711734      -0.01881832      -0.06660793      -0.04331207      -0.14409669       0.50183115       1.55704261      -1.20243616      -4.56094039
C       -2.64274096      -3.16119766       1.52680838      -4.06274891       1.35908687      -2.09831381       0.06259200      -0.31723538      -0.21098134       0.10782688      -0.07269263      -0.26575732       0.12975617       0.06857741       0.17874949      -0.40219346      -4.06037908       1.38159250      -2.08487030      -4.65267820
C       -2.37238264       2.20964479      -0.33669990      -0.63882083      -0.13257372       1.91775012       0.01670768      -0.27759480       0.00198881      -0.14024757       0.06320979      -0.22634389       0.00639028      -0.06848518      -0.05777467      -0.41562277      -0.61981210      -0.16283177       2.11872687      -4.78149121
C       -1.96688306       1.85964656      -1.75461864      -0.57118005       0.36415803      -1.45678270       0.09974550      -0.01469009      -0.04019787       0.05494492       0.06822455      -0.12313823       0.00864065       0.10841998      -0.08144227      -0.04142674      -0.60352523       0.44533185      -1.45842705      -4.49313839
C        2.23266435      -1.90950882       0.32764372       2.69225192       2.46099162      -0.41143382       0.04961147       0.04683018       0.11424455      -0.18687520       0.03301317      -0.07050957       0.02813017       0.02008284      -0.12674111       0.02044039       2.70561602       2.33417924      -0.29354353      -4.70800644
C       -2.28957510       0.39210021      -2.26882434       1.70759451       1.05387223       2.25566268       0.08469340      -0.14377253       0.06814905      -0.04195881      -0.04118901      -0.13953938      -0.01071042       0.06151905       0.05293525      -0.06554807       1.74626791       1.08249605       2.30178905      -4.58348681
C        2.10703444      -0.49733323      -0.37611508       0.68369699      -2.17547202      -0.78957474      -0.01128717      -0.63155399      -0.12285700       0.19056175      -0.22033758      -0.26359764       0.10870779       0.18521331       0.13266813      -0.05456326       0.69051628      -1.95809377      -0.83115202      -4.99665460
C       -1.65029657      -0.76157284      -1.38699389       0.47624069       0.62001467       0.76413029      -0.01607559      -0.37973801       0.02246916      -0.16411403       0.02181793      -0.21599756       0.07427612      -0.37414087      -0.02128133      -0.25712450       0.46286941       0.48638016       0.90633897      -4.94265619
H       -2.07905149       0.09396487       1.50559938      -0.31872150      -0.27913088       1.02448690      -0.15421008      -0.36007575      -0.12383085      -0.16327254      -0.04139413      -0.20091129      -0.10805766      -0.05698150      -0.07804113      -0.35160421      -0.28995679      -0.43914428       1.00582084      -3.65043690
H       -0.83914495      -0.22754082       2.70773482       0.61778003      -0.30698997      -0.43720686      -0.15703794      -0.39294180       0.14771008       0.04730952       0.09064084      -0.32463866       0.07272704       0.06357064       0.03211452      -0.31491235       0.56714966      -0.25350891      -0.37714373      -3.66582749
H       -1.29920566      -2.86241055       0.06679872      -0.87834561      -0.09842540      -0.48306572      -0.16856334      -0.46307848       0.00171641      -0.06338000      -0.01211297      -0.32898356       0.00731686      -0.15109017      -0.10232543      -0.21878102      -0.94030197      -0.12154609      -0.53156785      -3.58736173
H       -0.82561094       3.10589409       0.72605109       0.51805860       0.79445964      -0.36988586      -0.19467831      -0.18697534      -0.07261680       0.02914879      -0.00910360      -0.29214529       0.04158384      -0.00299338       0.02550293      -0.20321575       0.55245237       0.96890475      -0.46443711      -3.48999594
H        3.99615264      -0.49159610      -1.38761091      -0.14101259       0.63278437       0.31508839      -0.21424240      -0.16832211       0.05307773      -0.02217448      -0.00616465      -0.19934348      -0.00525379      -0.00725928      -0.01932745      -0.21356468      -0.12596491       0.61348810       0.31981708      -3.61958553
H       -0.33554173      -0.36580178       0.19703242      -0.00787442      -0.10896414       0.53265238      -0.17313479      -0.15172557       0.03152472       0.04801362       0.03321304      -0.18415005       0.00012086      -0.02974674      -0.03306157      -0.25661796      -0.03789670      -0.13499320       0.58112442      -3.68641859
H        0.91455287       1.37438941       2.72476268       0.52096593      -0.84111804       0.58456135      -0.17738505      -0.23116813       0.03282927      -0.02208234       0.04318279      -0.27715725       0.02455996      -0.03760546      -0.03257840      -0.30490134       0.60652236      -0.82730284       0.56225811      -3.59591019
H        0.99482101       2.38931751       1.34888315      -0.13277285      -0.53812593       0.45258540      -0.16627748      -0.35685650      -0.02685929       0.14574954      -0.01216676      -0.25804434      -0.02963052       0.15792580       0.00798791      -0.29593826       0.01516723      -0.46787196       0.39498196      -3.59935285
H        5.19912434       2.86790442      -0.46806359      -0.83351547       0.30281729      -1.01767254      -0.04253346       0.09774671       0.07796372      -0.01358254       0.08522313       0.10965081       0.01181406       0.09987908       0.08679935      -0.01763947      -0.82846430       0.30593282      -0.96149268      -3.91775064
H        5.45321274       1.39365745      -0.09287414       2.26520419      -2.03025484       1.27155530      -0.05112276       0.10828411       0.02849561       0.01021076       0.01327388       0.01406976      -0.02170648       0.07396304      -0.01569179       0.01368966       2.23898869      -2.03632065       1.28392306      -3.79008375
H        5.37587690       1.65915227      -1.89289486      -0.48838127       0.16738595       1.39120722      -0.04961476       0.15336190       0.06278200      -0.08140076      -0.05824920      -0.03759754       0.04326390      -0.18697914      -0.03371577       0.10722095      -0.48458077       0.14613858       1.44037087      -4.01331079
H       -2.18844604      -4.06720066       1.74139440       1.57806575      -1.28057516      -0.20875283      -0.05229247      -0.01019297       0.01166534      -0.00007038      -0.09894283      -0.02398426      -0.04280574       0.06066741       0.03119615       0.01583064       1.57468808      -1.26532074      -0.17392399      -3.97338725
H       -2.50097275      -2.45692992       2.29378653       0.36261621       0.87454683       0.90226549      -0.05005147      -0.03930326       0.02589504      -0.02805589       0.00791656      -0.01277665       0.04870649      -0.00219343       0.00095377       0.07098861       0.34741973       0.85763706       0.96396072      -4.00373192
H       -3.74368262      -3.42107511       1.50507343       1.05629170       0.55684167       0.07815335      -0.03954136       0.10460522       0.06161161      -0.06568399       0.04015970       0.00604703      -0.02486291      -0.00650171      -0.01337289       0.02768466       1.04150932       0.57852640       0.09112295      -3.91072388
H       -3.22735715       1.55546069      -0.02863991       0.95941067       0.35860088      -0.03743431      -0.04301607       0.02412308       0.04798895       0.00629624       0.02888771      -0.06922013      -0.00216203       0.04126465      -0.00404044       0.07853399       0.97747329       0.39693632      -0.05914930      -4.00372199
H       -2.79130745       3.24867797      -0.29408818       0.58963019      -0.92090291      -0.06958941      -0.05663023       0.02134335      -0.03929419       0.02140254      -0.05295954       0.05703532       0.00108417       0.04674932      -0.00188695       0.04134734       0.55614499      -0.94246659      -0.11770115      -3.93054851
H       -0.96337843       2.11253190      -2.05494666       0.46340799       0.32952073       0.46344137      -0.06231719       0.09362385       0.03677969      -0.02483577       0.04393129       0.00393238       0.00161671      -0.05596601       0.00781193      -0.02908520       0.48549167       0.33130464       0.50849335      -4.03164022
H       -2.63800979       2.60364127      -2.30387712       0.89612138      -1.31086016       0.02333963      -0.05386524       0.00930051      -0.04626536       0.03146283      -0.09017254       0.12933597      -0.07454955       0.01759156      -0.01743966       0.05101908       0.88723829      -1.36424090      -0.03203838      -3.85619897
H        2.38773823      -2.69727683      -0.39238858      -0.07226762      -0.34331197       0.10237585      -0.05900484       0.00950134      -0.04312188      -0.02517693      -0.01552757       0.07987955       0.04493964      -0.04622596       0.06836178       0.03153332      -0.06252485      -0.34746568       0.07539806      -4.05756838
H        3.12540913      -1.74834430       1.00634193      -0.73710114      -0.64449286      -0.86372024      -0.04761221       0.13938736      -0.04845218       0.04792908      -0.02652583       0.02607211       0.00583937       0.04469058      -0.00258330       0.01432745      -0.71925048      -0.64269982      -0.85962139      -3.92704714
H       -3.33173847       0.49775875      -2.12567401      -1.30531645      -1.37344217      -0.54888266      -0.05667049       0.09705057      -0.03770690       0.03558835       0.00783315      -0.02532307       0.05149899      -0.04746512       0.00616680      -0.07393207      -1.33106444      -1.40877440      -0.56518418      -3.94368547
H       -1.90488124       0.24855512      -3.28410888      -0.56219745       0.22233325       0.26995167      -0.06206489      -0.05007351      -0.01664187      -0.04646331      -0.04417664       0.03098701      -0.01823570       0.00757128       0.01502821       0.13159643      -0.57306326       0.26852039       0.31693942      -4.02923032
H        1.77042365       0.06915963       0.38660040      -0.51508546       2.08194137       2.51705742      -0.03924993       0.12490036      -0.07146936      -0.00315453      -0.25870691      -0.11298051       0.02665655      -0.04937924       0.05052116      -0.08175448      -0.57978754       2.09434435       2.55158959      -3.80826662
H       -1.50277984      -1.57956588      -1.97668266       0.52484691      -1.93467081      -2.43891430      -0.06087273       0.02901623      -0.01305095       0.01828386      -0.08057850       0.04484709      -0.05257898       0.06405893      -0.00291495       0.03119356       0.49378108      -1.92627594      -2.46213786      -3.90179055
49
Properties=species:S:1:pos:R:3:original_dataset_forces:R:3:LES_q:R:1:LES_BEC:R:9:forces:R:3:energies:R:1 original_dataset_energy=-214.5797882080078 energy=-214.536851195609 stress="inf inf -inf inf inf -inf -inf -inf -inf" pbc="F F F"
O        2.27052331       0.72326708      -2.17961884       0.32027015       0.10960457      -0.49731335       0.18054591       0.90478256       0.60037492       0.03136382       0.18905973       1.03818454       0.55765442      -0.23721404       0.20275373       0.67407599       0.32015715      -0.01508525      -0.59722529      -4.88125362
O       -1.87673759      -0.11790543      -0.64334440      -0.88867164      -0.12467944      -0.00796818       0.21504706       0.59564062      -0.16268411      -0.06488754       0.04173798       1.21706951      -0.45898260      -0.16312602      -0.21376022       1.31869516      -0.96188342      -0.00402311       0.14219722      -4.81792054
O        1.57254577       1.55305052       1.94001043      -0.32738760       0.05207953      -0.74670738       0.28726256       0.93874935       0.49553269       0.37280960       0.27737046       0.65634812       0.00037760       0.46664500       0.20908598       0.86734811      -0.39426356      -0.01014561      -0.74697911      -4.64738797
O       -1.65512776      -1.93799496       3.82969069      -0.06337474      -0.48635954       0.84178483       0.27750430       0.74582724       0.13223723      -0.20716773       0.02356806       0.58567311      -0.53568928       0.09671129      -0.47258104       1.29448656      -0.04935615      -0.50244767       0.82805552      -4.69567464
O       -1.80010366       1.06014001      -2.47241259      -0.69478065       0.54593861      -1.44138956       0.35036117       0.48131068      -0.05958680      -0.27280860      -0.11668513       0.82194589       0.05183454       0.17195216      -0.28040697       1.65671991      -0.64544903       0.60530979      -1.81939367      -4.49221933
C        2.66164017       1.77075970      -1.65842211      -0.00858758      -0.96018243       0.66775370      -0.09198116      -1.27648654      -0.27905817       0.50971323       0.14679286      -1.04841022      -0.89447116       0.69868547      -0.51421522      -1.00378099       0.00296902      -0.84369590       0.78645422      -5.33621492
C       -2.03991294       0.99609280      -1.27526808       2.25668287      -0.95047373       0.40541968      -0.10576431      -0.19978195       0.11735944       0.09986709      -0.06173018      -1.43517785       0.25028520       0.01657351       0.34247140      -1.97996920       2.24723655      -1.06372736       0.68060698      -4.83586695
C        0.69139332       1.21829617       1.14294314       1.99379575       0.68072420       1.19975221      -0.08302362      -1.08658985      -0.90951351      -0.38757825      -0.74879182      -0.92916151       0.16896992      -0.44008305      -0.01807684      -0.99735385       2.01639643       0.83762579       1.16251147      -5.23597393
C       -1.52377582      -1.37353206       2.76811314       0.59533024       0.46546724      -0.06838887      -0.09827047      -1.42028515      -0.20592367      -0.13508307      -0.16099975      -0.48757746       0.75355285      -0.33173827       0.68618492      -1.53135213       0.59991711       0.44275869      -0.05390252      -5.28991053
N       -2.54345965      -1.12843859       1.94087994      -0.95133519       0.43898401      -0.51532370       0.15816180       1.11182417      -0.03960133       0.23936572       0.07078032       0.31988790      -0.26972460       0.20649884      -0.22407294       0.80605502      -0.95449439       0.43668174      -0.52261180      -4.62285764
N        1.90346289       2.43150234      -0.78061420      -1.68124080      -0.13919520       1.17056227       0.12054270       1.03037395      -0.01866937      -0.55162266      -0.13546050       0.57623284       0.29199986      -0.48769766       0.20587095       0.72530260      -1.74494942      -0.19396203       1.12243060      -4.69839028
N       -0.14505094       0.20724729       1.38156664      -1.37052453      -0.34644327      -0.77872247       0.11373674       0.82844780       0.38085952       0.13872885       0.49522286       0.98987098      -0.20382608      -0.05557094      -0.37359203       0.68300931      -1.35417612      -0.47139721      -0.72029366      -4.73877725
C        4.05180883       2.32074261      -1.83923733      -0.07026177      -0.04204352      -0.62874001       0.09916677       0.10764780       0.07951535      -0.05985835       0.07233172      -0.05240708       0.01647459      -0.08117148      -0.00472170      -0.07114479      -0.06184892       0.00033827      -0.62234856      -4.71971415
C       -3.96830750      -1.17995071       2.35539484       1.57526946      -0.75176686       0.93412244       0.05721381      -0.55534139      -0.02619993       0.07498093      -0.04923105      -0.15310277       0.01481932       0.14565869       0.03034402      -0.20602097       1.55453643      -0.72504775       0.92598436      -4.81975393
C       -1.97558713       2.23888969      -0.45388633      -0.74663180       1.18037188       1.22652209       0.07345849      -0.14325459       0.07285502       0.05143921      -0.01398547       0.16058511       0.16203957      -0.02426080       0.13026850      -0.00738287      -0.73022429       1.10316765       1.23896976      -4.83075732
C        0.47250766      -2.64108992       0.59690917      -0.01808481       0.32892376       0.39188206       0.09556784      -0.14258927       0.01085725      -0.01029414      -0.01154298      -0.07840963       0.03843894      -0.03572091       0.08771893      -0.05808406      -0.00054697       0.28765493       0.40298687      -4.69096857
C        1.22515988      -2.00241661      -0.56413156      -0.72108352       0.29407927       0.20802961       0.09768797      -0.06655974      -0.03925375       0.02490660      -0.01075360      -0.13871376      -0.06826638       0.01564188      -0.08633177      -0.00578306      -0.72281161       0.28428731       0.23097304      -4.65420956
C       -0.55000240       2.85995340      -0.48444188      -0.26111025       0.13690512      -0.78122634       0.09278557      -0.17875954      -0.01365927      -0.00310744       0.09537022      -0.14168058       0.03611546       0.04966450      -0.09001869      -0.07801253      -0.29622086       0.19151169      -0.72572090      -4.73289831
C        0.85157913      -2.02456665       1.97337520      -0.26959080       1.15475225      -1.54619610       0.09211927      -0.10934972      -0.00446570       0.01112720       0.01561041      -0.13411441      -0.14407028      -0.01582794      -0.05836410      -0.08613585      -0.35027677       1.17057519      -1.52878889      -4.70336770
C        0.54045671      -2.29868793      -1.92111421       0.56253266       0.05423235       1.16077161       0.01286359      -0.24917724       0.12459483      -0.04294942       0.07307121      -0.38926933       0.09876901      -0.07763199       0.12484563      -0.22800721       0.53691007       0.12328069       1.17411938      -4.70935442
C        0.59587497       1.88221228      -0.27678701       0.58883530      -0.28638691      -0.05278366      -0.00666569      -0.53423503      -0.05698665       0.14545584      -0.07206956      -0.33428322      -0.00209296       0.13915882       0.11664033      -0.09221535       0.66125618      -0.37709731      -0.00838538      -5.06582644
C       -0.10496289      -0.84286726       2.40669537       0.62063193      -0.22210521      -0.60834628      -0.00662892      -0.15616430       0.10573019       0.04206023       0.08093739      -0.46031774       0.21050062       0.00638443       0.20407010      -0.33494905       0.54073004      -0.19109755      -0.66301241      -5.07819194
N        0.05302584      -1.00499177      -2.48672771       0.36747822      -0.94255519       0.16556214       0.01537395       0.25976033      -0.08118889       0.07215202      -0.04908713       0.41457437       0.01738592       0.06635497      -0.03210959       0.37851207       0.36185534      -0.94523247       0.09426146      -4.33736162
H       -2.36245537      -0.70933330       1.03684139      -0.20115046      -0.04656192       0.02685801      -0.13709749      -0.16544553      -0.08218755       0.17838254      -0.05141638      -0.23836117       0.20628821      -0.01775469       0.19002204      -0.65523534      -0.23266981      -0.07637393       0.03371648      -3.80023826
H        2.31278777       3.21227074      -0.30650401      -0.03937556       0.08364503       0.26210928      -0.20969719      -0.16362353      -0.02595116      -0.02417456      -0.02217287      -0.26538742      -0.01047081      -0.04255350      -0.02438388      -0.20732452      -0.03337282       0.08644062       0.24469428      -3.60844686
H       -0.91336346       0.14143720       0.70170248       0.55592775      -0.26031095       0.02341558      -0.10464448      -0.34649472      -0.06279972      -0.23205127      -0.06228692      -0.11724267      -0.11473990      -0.23304300      -0.07370416      -0.42444992       0.63915286      -0.22711195       0.00201743      -3.82014652
H        4.64465475       2.23789263      -0.92928410      -0.13767804      -0.18741864      -0.03792529      -0.05059040       0.06374193       0.01812946       0.03011969      -0.01835136      -0.03498895       0.00975235       0.07085389       0.00282868       0.04100482      -0.12975679      -0.19048267      -0.06347656      -3.99478780
H        4.52968502       1.80738819      -2.67165875       0.03541109      -0.01125611       0.22207856      -0.04591359       0.06661403       0.00570503      -0.05944975      -0.00368464       0.01510827       0.03017615      -0.05154057       0.03596867       0.04517844       0.03219454      -0.03510248       0.22885857      -3.96789671
H        3.98200083       3.36858130      -2.08946967       0.06354629       0.37215364      -0.05250117      -0.04932853      -0.00720186      -0.01141869      -0.00135606       0.00307867       0.08077340      -0.02362153      -0.01874398      -0.02254163      -0.00802126       0.06067828       0.36336015      -0.04663285      -3.96486963
H       -4.53333282      -0.74598950       1.56942284      -0.55367148       0.29126427      -0.58987981      -0.05552432       0.16239244       0.02564893      -0.05295167      -0.04187758      -0.01943383      -0.01470640       0.04285827      -0.02649251       0.01502850      -0.53526272       0.29069275      -0.56187977      -3.98321421
H       -4.28184223      -2.21414232       2.54766488       0.03729420       0.32901907      -0.13779594      -0.04814681       0.04562014       0.01815995      -0.03823785       0.11457919       0.06579726      -0.05593407      -0.01715212      -0.01463275      -0.02454049       0.06089277       0.30875724      -0.13291848      -3.99075847
H       -4.09579754      -0.61382568       3.28736544      -0.01317153      -0.13825704      -0.29973510      -0.04513466       0.02460904       0.02255121      -0.01835281      -0.04930892      -0.01974343       0.05245801      -0.08545761       0.02281690       0.06586777      -0.01266378      -0.13926254      -0.32809861      -3.98343510
H       -2.27093601       2.05275631       0.59280598       0.19190773      -0.14495414      -0.42243546      -0.05283770       0.06238244      -0.02230592      -0.03551057       0.05715582      -0.01312094       0.01022645      -0.08895980       0.02030854       0.10369611       0.21213115      -0.12823486      -0.43360394      -3.98335557
H       -2.68514252       2.99442148      -0.81189585       0.28262916      -0.15316693      -0.10748988      -0.05458045       0.11238214      -0.06709038       0.02575789      -0.11068572       0.10407591      -0.03847675       0.01504383       0.01179456      -0.00038635       0.28314171      -0.15801548      -0.11575237      -3.98964078
H       -0.59934843      -2.56984472       0.41940722      -0.11410713       0.21019422       0.09107077      -0.05372593       0.12598234       0.05323410       0.01982296       0.00135470      -0.02818215      -0.00866648       0.02357724      -0.02110298       0.00985012      -0.11114286       0.22196548       0.09932915      -3.99456728
H        0.67872161      -3.70574665       0.58090127       0.09653359      -0.21516991       0.19099407      -0.06161438      -0.01927333       0.01101066      -0.00443293      -0.01053862       0.12071931       0.01298617      -0.00076773       0.04420525       0.00791909       0.12018575      -0.22787857       0.18861152      -3.94405600
H        2.23392272      -2.38798952      -0.58256072       0.29639822       0.07206027      -0.00187353      -0.06317097       0.08424201       0.00643291       0.03310334      -0.01768279      -0.05999858      -0.00901024       0.00898963       0.02214610       0.04654085       0.28815406       0.07536105      -0.01027685      -3.95259574
H        1.28661108      -0.91872138      -0.37732241       0.06013886      -0.52534527      -0.31827688      -0.04020904      -0.03876525       0.03164857       0.01715594       0.02270458       0.07585785       0.01873140       0.02592630       0.04228993      -0.03856263       0.05842793      -0.50823118      -0.33298117      -3.93914660
H       -0.39631867       3.33894300      -1.47801197      -0.11583474      -0.31140336       0.77659154      -0.05025687       0.00762357       0.02955371      -0.02051517      -0.00049570       0.03344347      -0.04624361      -0.02982010      -0.08999321       0.07795443      -0.09628210      -0.33035364       0.78614817      -3.97528419
H       -0.50155300       3.60572577       0.29369465      -0.02606016       0.45910054       0.08795179      -0.06247199       0.07828054      -0.01826694       0.01569409       0.04986796      -0.01305502       0.06330209       0.03398081       0.02014763       0.03051533      -0.03768796       0.48587364       0.07033787      -3.99426602
H        1.90535212      -1.69929576       1.89675534      -0.56565875       0.18871777       0.26885176      -0.05385272       0.12501524      -0.00862833       0.04069824       0.02892440      -0.02100265       0.03432370      -0.02462755       0.03842039      -0.00293842      -0.57554462       0.21690862       0.27427716      -3.97997305
H        0.81606334      -2.79139519       2.68329644      -0.17725657      -0.89792866       1.33740520      -0.06168464      -0.01750556       0.00480064      -0.01975976      -0.02295168       0.05170674      -0.01546803       0.00781471      -0.02895631       0.04237198      -0.16089673      -0.93312083       1.30995889      -3.98321564
H        1.31924486      -2.75456429      -2.53011680      -0.50334102       0.26499367      -0.60465413      -0.06379697       0.01638979      -0.05696396      -0.03171392      -0.03446218      -0.00808517       0.00525509       0.00033990      -0.01464042       0.00491132      -0.50856144       0.25788058      -0.58836494      -3.96657144
H       -0.28959394      -3.01182127      -1.76532686       0.31750041       0.61537099      -0.39155325      -0.05907074       0.02951790       0.03732975       0.01979562       0.06330944       0.02817048      -0.02339812       0.01958858      -0.05230058      -0.00932106       0.31980077       0.63329958      -0.39836237      -3.94919538
H        0.42468733       1.03594601      -0.90377516      -0.10376123      -0.23003845      -0.56890196      -0.03799400      -0.06564338      -0.03830697       0.05013167       0.05205903       0.12855863      -0.07183052       0.09950753       0.07873111      -0.05283209      -0.12344253      -0.12507303      -0.54792039      -3.89071264
H        0.24639547      -0.41141596       3.33446860       0.17420602      -0.00746703       0.09542898      -0.05955511       0.01899426      -0.01877857       0.01232785      -0.01284968       0.03319627       0.01871167       0.02375582       0.03026751       0.05840330       0.22406539       0.02146630       0.09285041      -4.01881688
H       -0.25591037      -1.09885216      -3.43336272      -0.43848416       0.16758680      -0.50188130      -0.19728257      -0.21780832       0.02586159       0.00196118       0.00431650      -0.24828320      -0.07406334      -0.03784774      -0.03811646      -0.35539532      -0.42248748       0.14541391      -0.44556223      -3.36418092
H        0.78436464      -0.30627859      -2.44545174       0.98699588       0.38622323      -0.25134379      -0.11926959      -0.45624975      -0.29264687      -0.12247593      -0.26999832      -0.37281589      -0.02901469      -0.05415436      -0.06536811      -0.21590019       0.99867493       0.33684719      -0.26135431      -3.56453425
H       -0.68584037      -0.56585622      -1.91915917      -0.92052794      -0.50524783       0.20630258      -0.10569045      -0.41156685       0.19215326       0.13741811       0.17989704      -0.27545340      -0.01866127       0.20029977      -0.05971771      -0.27834737      -0.89319129      -0.50525848       0.15549618      -3.59249856
51
Properties=species:S:1:pos:R:3:original_dataset_forces:R:3:LES_q:R:1:LES_BEC:R:9:forces:R:3:energies:R:1 original_dataset_energy=-221.513671875 energy=-221.58148899994106 stress="-inf inf inf inf inf inf inf inf -inf" pbc="F F F"
O       -3.06727362       0.18951458       1.90230072       0.12412811       0.87584335       0.44535863       0.28796476       1.12741154       0.12596078      -0.12674290       0.44638659       0.73987346       0.27383088       0.23304800       0.36656118       0.61370959       0.08593953       0.83887222       0.42172008      -4.69890362
O        1.06961012      -2.40508866      -1.51271784       2.23453164      -1.43284082       1.61647403       0.31263742       1.09684878      -0.28596191      -0.10930088      -0.19795183       0.83801430      -0.28602818       0.27494845      -0.51037162       1.10079671       2.25100932      -1.60530717       1.76463407      -4.58111327
O        3.38068986       2.47318959      -2.46239805      -3.12494349      -0.07351830       0.09342489       0.31769827       1.28702001      -0.15789315      -0.33097074       0.10420589       0.86995433       0.00155022      -0.21138008       0.16619057       0.42774412      -3.07886138      -0.02153514       0.09307616      -4.54003702
O       -0.30472165       2.42137170       0.02897620       1.15656543      -1.32092750       0.22880787       0.26675805       0.57880329      -0.25251862      -0.26805757      -0.30411920       1.26149505       0.02875807      -0.19272750      -0.22306713       0.64732853       1.17787899      -1.41822824       0.23223230      -4.70824260
O       -0.77445972      -1.66595411      -2.32294846      -3.14371276       0.49517792      -0.30003998       0.25501385       1.45271997      -0.23893051      -0.11183681      -0.12046972       0.42098718      -0.20006449      -0.21744497      -0.16713844       0.64287219      -2.83376824       0.44732493      -0.46423121      -4.72322427
C       -2.36999464       1.01339591       2.49140072      -1.02681565       0.30535012       1.06608057      -0.07088648      -2.05320917      -0.15334017       0.39296465      -0.40820899      -0.73215292      -0.48447588      -0.03372825      -0.56884348      -0.62130123      -0.98200464       0.31072417       1.06116265      -5.28551691
C        0.43744025      -1.86051381      -2.39986658      -0.15786017       0.96452826      -0.56938142      -0.08662461      -1.87474704       0.46605030       0.07294409       0.34508919      -0.61649607       0.70446553      -0.15679249       0.79430296      -1.08308861      -0.46029326       1.04891449      -0.65565029      -5.14104535
C        2.13684940       2.50241208      -2.16700792       5.47859955       0.00364059       0.36600459      -0.11054057      -1.50338579       0.16054987       0.52410994       0.17600832      -1.53428404      -0.12278216       0.33853993      -0.30271025      -0.18815548       5.49661714      -0.13338050       0.34377763      -5.08678273
C        0.16196468       1.26394260       0.13648635      -1.81246293       2.73331046      -0.38455370      -0.07931387      -0.58594949       0.53097087       0.55459521       0.46687426      -1.37650256      -0.08818294       0.56186090       0.00966609      -0.91572653      -1.77584030       2.78654889      -0.39532039      -5.28749119
C       -1.85298359      -3.04066277       0.43634665       0.64227051      -0.59650332       3.19482613      -0.07660217      -1.92693189      -0.69670062       0.12339751      -0.20035675      -0.46700515       0.61908426       0.18323908       0.87659816      -1.57177354       0.50902852      -0.67292180       3.06946715      -5.39950341
N       -2.59736109      -3.47695684       1.38399565      -1.72255993      -2.49963212       5.08195591       0.13353044       0.74716351       0.31177751      -0.31362025       0.29012103       0.52474059      -0.36957699      -0.51518387      -0.67535123       0.85494433      -1.66524779      -2.51196279       5.16637044      -3.85130760
N        1.60285401       3.69922256      -1.83818054      -0.09707616      -3.31302071      -2.24729300       0.11397214       0.41496986      -0.21702680      -0.06118641      -0.28554951       1.15942547       0.16102882      -0.16894225       0.15718125       0.20729010      -0.08342270      -3.24486704      -2.21243178      -4.61044616
N       -0.57334113      -2.96518183       0.54685259       1.40296757       0.16340187       1.49099708       0.10497124       1.17105310       0.01900036       0.09228692       0.15293788       0.35416607      -0.06506395       0.03523204      -0.01663669       0.61740623       1.34300491       0.24339092       1.82323206      -4.41334161
N        0.90298438       0.65748632      -0.78775150       1.06122720      -1.07131982      -0.30279991       0.10423034       0.50873371      -0.26006752      -0.40526283      -0.19885921       0.54845481       0.13607114      -0.44610095       0.26298103       0.74176555       1.11009693      -1.11074129      -0.31451615      -4.76849572
N       -1.05738282       1.07875955       2.35716200       3.14614272      -1.03736639      -2.03279042       0.10653898       1.45299633      -0.07050741      -0.37297312      -0.16397594       0.42560064       0.20175019      -0.32102510       0.15266548       0.51596279       3.17394272      -1.02649986      -1.98666960      -4.72214394
N       -2.48254442      -2.66945267      -0.58676982       0.59871370       2.66477752      -5.53459597       0.14299437       0.69058707       0.02081118       0.13981349      -0.12295289       0.11295843      -0.36105696       0.40622846      -0.08258768       1.05426786       0.68329875       2.72822651      -5.62585784      -3.70671004
C       -2.86188817       2.05931139       3.56250286       0.59034336      -1.84900749      -0.71036834       0.11052148      -0.06066855      -0.00988804       0.00426454      -0.05360125       0.01308887       0.11478979      -0.05474542       0.11945584      -0.02368893       0.57298630      -1.83918802      -0.68266045      -4.53686559
C        2.20967722       4.92963219      -2.00009108       2.43210316       1.52388608       1.13956344       0.06741764      -0.11448288      -0.00826173      -0.05892163      -0.08696658      -0.38884953       0.02636011       0.09050487       0.24758785      -0.19077326       2.44470560       1.46733482       1.11698640      -4.74652592
C        1.13896453      -1.16385114      -3.49812841      -0.13348480       2.23493719      -1.27713692       0.08564410       0.05131627      -0.01013133      -0.24842306       0.15143796      -0.03049723      -0.34183509      -0.03858712      -0.12033956      -0.04394169      -0.15478179       2.17152088      -1.30330115      -4.79711190
C        0.35021088      -2.91757798       1.67751133       0.24748389      -1.68233955       0.87783700       0.02240698      -0.31237365       0.16472679      -0.20214237       0.00387997      -0.26187222      -0.05944675      -0.17073949       0.13674192      -0.45368843       0.43038252      -1.79988206       1.02491930      -4.83271050
C        0.37247774      -1.68080413       2.58297014      -1.31354368       0.60204220       1.02852392       0.08899669      -0.12489661      -0.09082420       0.11239846       0.00117964      -0.21664295      -0.02263736       0.03299993      -0.06690642      -0.02858841      -1.29492565       0.52142357       0.94197081      -4.63363564
C        1.97967339       0.02028209      -2.97959232       1.92896402       0.57153249       0.60287517       0.11201667      -0.04921696       0.01651291      -0.04269031      -0.01317289      -0.03940214      -0.05012371      -0.06022863      -0.05870147      -0.09580926       1.95252595       0.60394438       0.49993473      -4.48575119
C        0.85401607      -0.41976631       1.90425694       0.19226421       0.34012964      -0.21283658       0.07731587      -0.19944063       0.01759683      -0.19821840      -0.00904752      -0.08449586      -0.06918598      -0.05540901      -0.02675865      -0.03549883       0.07988834       0.48496974      -0.14256806      -4.67111189
C        1.37912810       1.16371822      -2.12205768      -0.73888654      -0.75830334       0.64684045      -0.03901393      -0.21624946       0.00772311       0.20286765       0.04795573      -0.23416326       0.04146887       0.12385871      -0.03073131      -0.51728764      -0.67402913      -0.68271893       0.57641405      -4.92705082
C       -0.29910898       0.35243642       1.28190839      -0.40600821       0.23998775      -0.28460214      -0.02237859      -0.36085607       0.11846789       0.07578250       0.17134358      -0.12939848      -0.18708100       0.08128447      -0.24309599      -0.38670848      -0.43419883       0.31408421      -0.26858444      -5.01851343
H       -2.33292055      -4.02955246       2.25586510      -0.46340793       1.42111921      -2.19924903      -0.20024864      -0.23319315      -0.06712922       0.01379009      -0.03104422      -0.31171078       0.05912452      -0.00800493       0.09616301      -0.27610047      -0.48166535       1.39065987      -2.07718667      -3.53816711
H       -3.53195381      -3.42471123       1.06239438      -1.07906926      -0.55424052       1.10622454      -0.18219572      -0.28554579      -0.05274899       0.03162641      -0.02614587      -0.21991367       0.01587735      -0.07463814      -0.07238987      -0.18046332      -1.17609079      -0.61691700       1.02265959      -3.41064830
H        0.79256940       3.63940716      -1.34753942      -3.03668094      -0.03620356       1.54091334      -0.17720383      -0.20018137       0.14000993       0.00182649      -0.13753151      -0.30103860       0.15704489       0.06871060       0.03197155      -0.24691827      -3.15508062      -0.00070215       1.58347438      -3.65007885
H       -0.27514547      -2.81799579      -0.34793359       2.95271826       0.90071350      -2.72520471      -0.13076214      -0.33307196       0.15896193       0.23404024      -0.08142312      -0.07276618       0.12607027       0.17938221      -0.26568171      -0.49674032       3.00245244       0.92733522      -3.08750628      -3.63318692
H        0.92411900      -0.36453411      -0.63743639       0.60404396       0.85950971      -0.65507740      -0.17510320      -0.20942201       0.02707688      -0.00481366       0.03524818      -0.38550971      -0.11016241      -0.01060527      -0.04081753      -0.11438210       0.55018490       0.98103316      -0.60623196      -3.62512138
H       -0.46585849       1.68059087       2.91888666      -0.64672405       0.03429207      -0.26890132      -0.21214388      -0.18465924      -0.01548670      -0.03505426      -0.02535678      -0.20936783       0.03853217      -0.04354419       0.02361004      -0.16078526      -0.64261537       0.06596927      -0.22551164      -3.59034920
H       -1.84391630      -2.11857033      -1.27911091      -0.71349382      -0.69824016      -0.01798534      -0.07736980      -0.27430364      -0.04953018       0.21957374      -0.11262771      -0.16946200       0.09361571       0.20802894       0.13328516      -0.28918975      -0.86835877      -0.78840418       0.01128554      -3.76585578
H       -3.45831752      -2.50585890      -0.62993920      -0.54240066      -0.16746420       0.19419803      -0.18720926      -0.29434750       0.04984244      -0.06225504       0.07413247      -0.12944644       0.02022597      -0.11649162      -0.07717912      -0.26099353      -0.54033094      -0.09438396       0.30145982      -3.52558327
H       -3.92520285       2.01267481       3.40157080      -0.38694376       0.59543812       0.60157168      -0.04998954       0.07161346      -0.02470448      -0.01340539       0.00015761      -0.00081249       0.03065471      -0.00109429       0.02853088       0.01680344      -0.38978396       0.60668475       0.60195172      -3.98569109
H       -2.52930355       1.69633698       4.56138039      -0.58434707       0.21221520      -0.64026630      -0.04854909       0.01345887      -0.03048122       0.00562919       0.00920866      -0.01416268      -0.04886042       0.01579047      -0.00993011       0.09378536      -0.57622567       0.22076725      -0.66444234      -3.99379123
H       -2.38683319       3.02104115       3.38526201      -0.36208516       0.04034394      -0.12970932      -0.05097795       0.02417365       0.03405545      -0.03624830       0.05417760       0.05442467      -0.03182629       0.01612265      -0.02159141      -0.04105908      -0.35300903       0.01627861      -0.11382780      -4.00298495
H        1.47195494       5.70697784      -1.83640599       0.18641859       0.13071713       0.27771440      -0.05398432       0.01335749      -0.04667728      -0.01565438       0.01642585       0.14185021      -0.02808537      -0.02982172      -0.03679804      -0.01199695       0.20669174       0.13153463       0.28587925      -3.96633703
H        2.73940516       5.15090036      -2.91907406      -0.40112448      -0.59577256      -0.58532524      -0.04651865       0.00260546       0.02599270      -0.03775919       0.00656395      -0.01720637       0.00154949      -0.09801439      -0.18497654       0.09157338      -0.40507637      -0.57330024      -0.60307985      -3.97960438
H        3.04953456       4.92366076      -1.26803565      -0.46803308       0.90076882      -0.12945157      -0.03919285       0.04481254       0.02023472       0.06765312       0.00431571       0.00168630      -0.02032335       0.04615773       0.01704667       0.01722659      -0.49193744       0.90618071      -0.11037882      -3.90586344
H        1.79594398      -1.78296959      -4.07707071       0.46511543      -0.47183850       0.04105939      -0.05677739       0.02802623      -0.02830018      -0.02597517      -0.02925111       0.05146377       0.07270806      -0.07209710       0.07417113       0.11140210       0.45274618      -0.46493898       0.05425987      -3.99396678
H        0.47215793      -0.67212528      -4.25473928      -0.01741086      -0.89165771       0.84890962      -0.04612541       0.03874661       0.01327960       0.09460277      -0.02889543       0.02934833      -0.04483338       0.04554432       0.00947098       0.16165797      -0.02786115      -0.88098531       0.83677457      -3.91813718
H        0.07341507      -3.75274014       2.35198212       0.14883097       0.25295478      -0.27865973      -0.05579267       0.07180576       0.16747338      -0.06267890       0.00661225       0.03115198      -0.02568823       0.06491591       0.01344374       0.06479187       0.16468344       0.29906100      -0.38923811      -3.94696769
H        1.38987076      -3.19542694       1.34830344      -1.23194170       0.51764631      -0.19876626      -0.05256420       0.11761694       0.00842614      -0.00036791      -0.02918405       0.01394554       0.03391472      -0.00028152       0.03673448      -0.01522026      -1.26762439       0.54040019      -0.11556060      -3.97640235
H       -0.67600358      -1.54021907       3.01334190       1.48211682      -0.13243668      -0.23188676      -0.04993041       0.11080722      -0.01183575      -0.08809674      -0.04095857       0.01875122       0.06154924      -0.06612557       0.03274697      -0.02470077       1.45000225      -0.13480684      -0.24535150      -3.99224799
H        1.11159074      -1.82554245       3.36868763      -0.42146266      -0.73312479       0.32242674      -0.06381959       0.02953591       0.01354790       0.06883896      -0.00890680       0.06424388      -0.05529394       0.05479995       0.01066565       0.09610585      -0.41819900      -0.71090035       0.31419114      -3.94863062
H        2.84337068      -0.28960401      -2.39554548       0.20275898      -0.49310541      -0.32588160      -0.04964968       0.04837934      -0.01043400       0.08898296      -0.00344692       0.01762766      -0.00297258       0.08001789       0.00474040       0.00943891       0.22369738      -0.48178807      -0.27673382      -3.98496381
H        2.36291766       0.48054302      -3.89779472       0.13603869       0.17935340       0.49906805      -0.04941266       0.02724584       0.03525200      -0.02846709       0.03952708       0.07283326       0.00908083      -0.02368098      -0.01543566       0.04587460       0.14699436       0.19634986       0.50924045      -3.93081145
H        1.59874201       0.26751852       2.41056585      -1.32880259      -0.73969567       0.21399027      -0.05289689       0.08223970       0.05429147       0.07895978       0.07149958       0.05857691       0.06517012       0.03991516       0.02238520      -0.00449488      -1.31055118      -0.74011964       0.18421702      -3.96834689
H        1.50065756      -0.87582755       1.20072651       0.60651422       0.22938131      -1.48900282      -0.04851014       0.02890498       0.00480510      -0.04665030      -0.03022765       0.02050271       0.03089989      -0.03593295       0.00480964       0.04228878       0.67761471       0.20046331      -1.50310596      -3.84559225
H        0.55376327       1.35945868      -2.68829679      -3.00228095       0.87288302      -1.07509112      -0.06365012       0.03868180      -0.00364807      -0.01260605       0.03183013       0.05431546      -0.02998146      -0.00233323      -0.02049016       0.05867138      -2.98683422       0.85126183      -1.02731132      -3.90174456
H       -0.99003863      -0.30230516       0.68479717       0.34217960       0.29018137       1.28382504      -0.04328255       0.02549766       0.07963004       0.11943094       0.04311292       0.04367811      -0.01960693       0.04457037       0.00882220       0.04536712       0.34224501       0.25322017       1.25596687      -3.98851350
42
Properties=species:S:1:pos:R:3:original_dataset_forces:R:3:LES_q:R:1:LES_BEC:R:9:forces:R:3:energies:R:1 original_dataset_energy=-191.61651611328125 energy=-191.68056343258584 stress="inf -inf inf -inf inf inf inf inf inf" pbc="F F F"
O        3.16033578       3.04477143      -0.01905423      -0.56540227       0.15230437       0.27523646       0.29027158       0.87542631      -0.20171799       0.01264058       0.10233954       1.32932535      -0.17585347      -0.07702657      -0.22226869       0.34897426      -0.58784818       0.15446206       0.28541581      -4.67303381
O       -0.52386272       2.20185542       2.39616156       0.36404446       1.12360036       0.47137049       0.37147856       0.82783970      -0.27371863       0.00375568      -0.04866955       1.64768665       0.24650010       0.00583160      -0.08663444       0.50363603       0.32530676       1.13607480       0.50218392      -4.51730422
O       -2.00494909      -3.36731052      -1.84430671       0.11373720       1.22452915       0.18146387       0.29893461       1.13836653       0.10188392       0.30680931       0.40447799       0.94615574       0.34316188       0.33666260       0.17922105       0.50115890       0.12360689       1.20286109       0.19591967      -4.61472425
O        1.50652742      -0.58886975      -1.35182464      -1.07745600       0.61328697       1.08266008       0.27023935       0.93577588       0.09446842      -0.27617881      -0.06421204       0.66273580       0.29623093      -0.49223940       0.20833482       0.92107816      -1.07955875       0.63341818       1.08479682      -4.68683792
O       -1.15411639       0.11257245       2.50784922      -1.15292680      -1.03132594       0.42363614       0.27990520       1.31269761       0.34395036      -0.15321802       0.13691052       1.08524145      -0.09992359       0.04617804       0.00757098       0.73895047      -1.09525440      -1.06437393       0.45828420      -4.64532915
C        3.66762757       1.95726502       0.18526685       1.20385599       1.83720124      -1.04425037      -0.06509347      -1.41583083      -0.23141303       0.15986937      -0.55123568      -1.94061246       0.38823303       0.33477121       0.46641997      -0.19363336       1.21444634       1.83406013      -1.03820904      -5.36828723
C       -0.26086324       1.00618887       2.49576235      -0.52636242       0.06655604      -1.59923565      -0.07503121      -1.34600268      -0.12069998       0.27715757      -0.16395253      -2.08162870      -0.06503579       0.14688711       0.06537324      -0.10059657      -0.53982054       0.16740927      -1.59702412      -4.98300108
C       -1.11664689      -2.63909149      -1.37649417      -1.82348454      -2.04319644      -0.11703859      -0.09930053      -1.59551523       0.05895489      -0.54642393      -0.00551437      -1.22530819      -0.26652243      -0.54514195      -0.21688721      -0.33375792      -1.79623909      -2.00231454      -0.16924902      -5.30680854
C        0.84319407      -0.16155529      -0.38615367       2.16579676      -0.61485404      -0.82342994      -0.08636317      -1.60372254      -0.26266462       0.43199146      -0.23736175      -0.48037313      -0.43289219       0.50500340      -0.42999187      -0.97239683       2.11773410      -0.61075563      -0.79274710      -5.29121848
C       -3.63839984       1.52644956      -1.20669174       0.88336658      -2.08123446       0.15196052       0.00477551       0.03523963      -0.09342976      -0.07461570       0.08496212      -0.07535465       0.14469777       0.05140212      -0.16100026      -0.14243189       0.88426035      -2.11005512       0.14976672      -5.38828710
C       -3.14908290       0.60016602      -0.30042568      -0.41769114       0.08981138      -0.66359270      -0.04250481      -0.00029220       0.06513245      -0.01377967       0.06588329      -0.42157961      -0.18437415      -0.18111303       0.15273677      -0.18436289      -0.47170801       0.16197940      -0.69121096      -5.47141366
C       -3.08873963       2.62563848       0.63369495       0.18267678      -1.71022284       0.01896376      -0.11747483      -0.28094459       0.14028948      -0.11574334       0.20434646      -0.35522751       0.23808758      -0.16418119       0.25834189      -0.31585528       0.18149883      -1.61779164       0.05036337      -5.66587973
N       -3.54428005       2.75622535      -0.61916316      -0.18719871       1.74924409      -0.47268519      -0.00627464       0.05308103      -0.05515497       0.15663965      -0.06774036       0.26518048      -0.17930708       0.12723161      -0.15801785       0.29039058      -0.18638579       1.68571074      -0.49205033      -5.16107378
N        0.05665278      -3.17193198      -1.06503940       1.74665952       1.13169920       0.67588592       0.12442834       0.97466449      -0.10320900       0.28249946      -0.40536824       0.67456082      -0.04312835       0.21297866       0.02290652       0.22625203       1.73126653       1.12064938       0.68836138      -4.70191862
N       -0.42769164      -0.49780446      -0.13701442      -0.66015857      -0.24530633      -0.58740741       0.10479900       1.22244013       0.18155702      -0.22277819       0.25958017       0.38922876       0.08936740      -0.10105889       0.15949467       0.44994435      -0.60900055      -0.28828152      -0.53929537      -4.80488701
N        2.99548650       0.86208016       0.51685959      -1.55799294      -2.38833737       0.41014156       0.10820945       1.10237724       0.58979403      -0.19496779       0.44882917       0.96670936      -0.18739724      -0.26044410      -0.23633288       0.34917250      -1.52998350      -2.39372843       0.42572731      -4.72416076
N       -2.92281175       1.29861426       0.87353057      -0.12954217       1.60333455      -1.77921200       0.00963171       0.11682625      -0.12997739       0.12031222      -0.31643058       0.45828938      -0.17868417       0.14536710      -0.21511838       0.38007302      -0.11962545       1.46295705      -1.71527252      -5.21005452
C        5.17902946       1.80833948      -0.06415352      -0.22564834      -0.43505549      -0.30303600       0.11284366       0.15253561      -0.03192854      -0.04710289       0.03427900      -0.02777095      -0.01071085      -0.14048962      -0.03777560      -0.10734437      -0.22527644      -0.42770431      -0.30974420      -4.58337934
C        0.51626617      -4.54912138      -1.20161223      -0.18742450       0.20093347       0.46206686       0.06254016      -0.21289877       0.15405229      -0.00250892       0.18268812      -0.42342776       0.00508739       0.01113142      -0.03734210      -0.14051489      -0.17228127       0.19515305       0.48075176      -4.80956798
C       -2.81515980      -0.88162100      -0.56499702      -0.50638938       0.25319940       1.37616158       0.04744961      -0.19262561      -0.06864746      -0.01152239       0.07887465       0.00041998       0.04955437       0.04662215       0.03033773      -0.12773566      -0.42274468       0.26227792       1.35559138      -4.86491447
C        1.12565017       0.49383241       2.18163538       0.78306466       0.26991725      -0.94345081       0.06555796       0.20243035      -0.07945199      -0.01765667      -0.07728462      -0.00935257       0.07380212      -0.08054461       0.05971000      -0.05911076       0.80454929       0.23095674      -1.02409091      -4.77468151
C       -1.39168787      -1.15165734      -1.06385076       1.19030964       0.96114910      -0.09850871      -0.02671402      -0.45600322      -0.11665210      -0.09281375      -0.24826644      -0.14856608      -0.11126679      -0.13104626      -0.04613299      -0.27946306       1.09341363       0.98169979      -0.06021872      -5.12946640
C        1.50325990       0.78022808       0.66886193       0.68101984       0.01067538       0.66337693      -0.00073808      -0.61989539      -0.09849117       0.03863111      -0.03887840      -0.13029550       0.09790066       0.08118768       0.08208413      -0.20061699       0.67044105       0.05800465       0.70412924      -4.98441956
H       -3.95231342       1.24333811      -2.20419264       0.01974403       0.81802827       0.15284321      -0.07459759      -0.07805307      -0.00501743       0.01327644      -0.05498978      -0.02232671      -0.02583845       0.07221957      -0.03982110      -0.02152279       0.02715606       0.82120797       0.14531805      -4.19948769
H       -2.78629255       3.42861915       1.27665615      -0.11384225      -0.07313279       0.24618912      -0.06321450      -0.05477399      -0.02138020      -0.02240712      -0.01400931      -0.03988375       0.01165003      -0.01343613      -0.00492387      -0.06235540      -0.09767304      -0.09933889       0.22770753      -4.25282104
H       -3.67425394       3.68061566      -1.10524750       0.09678576      -1.66306639       0.95450848      -0.22079946      -0.25791493       0.04907604      -0.02401397       0.02037842      -0.37444301       0.04507970      -0.05540835       0.10145426      -0.27725173       0.11443909      -1.64741716       0.96321985      -3.61366190
H        0.78169662      -2.51246119      -0.83560848       0.00702842       0.06286863      -0.03852805      -0.17085496      -0.24057034      -0.12575076       0.00886482      -0.11862331      -0.42503375      -0.02221935       0.01195765       0.02685751      -0.19578573      -0.01196091       0.03499883      -0.03752679      -3.67812211
H       -0.75991225      -0.20395726       0.76488858      -0.48182729      -0.29712495       0.56119078      -0.14246091      -0.19508475       0.10320924       0.20747103       0.08341068      -0.16599449      -0.08768798       0.19427109      -0.11191512      -0.64956158      -0.51261943      -0.34872756       0.43122451      -3.78623897
H        3.52648664      -0.01619299       0.50516933      -0.70458311       0.71388763       0.02334016      -0.20898482      -0.16378118       0.02633323      -0.03039352       0.07078439      -0.21814592      -0.00106762      -0.01242536       0.00898933      -0.20478703      -0.69156468       0.71009433       0.01616093      -3.60137200
H       -2.46368814       0.87551087       1.68825173       0.85716033      -0.14830184       1.00440979      -0.14104980      -0.55116281       0.17613534      -0.27228631       0.22467129      -0.34474440       0.15244327      -0.27621631       0.16464551      -0.42454812       0.80430285      -0.07417025       0.95060239      -3.90565317
H        5.73388672       1.54898655       0.85196775      -0.21067804       0.09618279      -0.42078620      -0.05268181       0.07039817      -0.00174433       0.04762976      -0.00818539      -0.01262756      -0.02529368       0.09063735      -0.00837940       0.05260539      -0.20550461       0.08731972      -0.41978336      -4.02265473
H        5.26885128       0.98821157      -0.80223143       0.33463812       0.33869043       0.39942539      -0.04750220      -0.04345934      -0.02415750      -0.00837282       0.01475857       0.06172847       0.05300536       0.00930392       0.06127592       0.02529999       0.34759620       0.33156017       0.40461849      -3.97202459
H        5.56931496       2.74326563      -0.52091461      -0.40492240      -0.72356087       0.52361053      -0.04309782       0.09482423       0.05116793      -0.02085046       0.04980075       0.05818136      -0.03981749      -0.04217403      -0.04152664       0.00231274      -0.39812526      -0.71697569       0.51281728      -3.96976681
H        0.24994272      -4.94231701      -2.18280935       0.21632448      -0.07630800       0.15387230      -0.04775347      -0.02829529      -0.00748376       0.02469074      -0.00720834       0.00893799       0.00681737      -0.00034764       0.09106653       0.04251635       0.20395188      -0.06420012       0.14626648      -4.01053684
H        1.60893512      -4.54233694      -1.00444007      -0.75537962      -0.05668401      -0.48360023      -0.05152401       0.08991674      -0.06507078       0.00686208      -0.01837201       0.07615902       0.02170358       0.02169204       0.01660383      -0.01875516      -0.74723723      -0.06583320      -0.47219875      -3.96117853
H        0.06523061      -5.16414881      -0.41167185      -0.02487649       0.03084646      -0.37965673      -0.04978551      -0.01220089      -0.00845375      -0.04103621      -0.00056518       0.06680074      -0.01495038      -0.01788397      -0.08195949       0.00196699      -0.00399049       0.03558187      -0.38361827      -3.97960075
H       -2.93942571      -1.46168840       0.34869355      -0.03808036       0.23482265       0.26284477      -0.05201925       0.01334944      -0.02009736      -0.02014441      -0.02728674       0.06171355      -0.04974751      -0.04871009      -0.06587555       0.04446860      -0.03866631       0.22174877       0.29281668      -3.98835797
H       -3.58074760      -1.29163384      -1.20428932       0.17154177      -0.06767187      -0.57236820      -0.05605408       0.06952582       0.03381047       0.03994339       0.07294150       0.03351782       0.03481640       0.05442685       0.01759962       0.01880222       0.13889374      -0.03112195      -0.57518956      -4.00463093
H        1.86405396       1.00078464       2.78245878       0.20535748       0.12990505       0.07454161      -0.05384915       0.07316300       0.02201752       0.07097253       0.02794884      -0.01314202       0.01944785       0.06208479       0.02500219       0.04253753       0.21996530       0.14097480       0.08491735      -4.00478820
H        1.17862701      -0.56388974       2.33080387       0.04319276      -0.59071803       0.40137193      -0.05524700       0.00445773      -0.00700105       0.01662515      -0.03952059       0.09688901      -0.06488254       0.02047503      -0.01857916       0.00931161       0.05120976      -0.61682142       0.38790422      -3.98400473
H       -1.29037130      -0.62984717      -2.00613689       0.17811622       0.01560564      -0.41916755      -0.06277190      -0.00079568      -0.00587838      -0.03411796       0.01344446       0.03020787      -0.01022107       0.00887686       0.01169510       0.05532907       0.17851191       0.01208133      -0.42897105      -4.02015309
H        1.08424187       1.75387573       0.46981436       0.30821553       0.51427674      -0.19894069      -0.04339101      -0.01551236      -0.03264069       0.01629054      -0.06763474       0.01616931      -0.04076464       0.04268766       0.00276107       0.00760741       0.31051806       0.49636933      -0.19846527      -4.01302920
