45
Properties=species:S:1:pos:R:3:original_dataset_forces:R:3:LES_q:R:1:LES_BEC:R:9:forces:R:3:energies:R:1 original_dataset_energy=-202.7778778076172 energy=-202.80762860340442 stress="inf inf -inf inf inf inf -inf inf inf" pbc="F F F"
O       -2.02966976      -0.63859695       3.42645478      -0.61704832      -0.31854364      -0.07776701       0.25323990       1.25042408       0.21927282      -0.24237046       0.36208007       0.47126742       0.12527854       0.06446445       0.19845509       0.62027951      -0.66937161      -0.28159120      -0.04026877      -4.79315687
O       -0.82109284      -2.01025486      -1.41699779      -1.53458643       0.89854950       0.39532167       0.30580470       0.86241016      -0.42629571      -0.01532584      -0.47722805       1.34173436       0.11342693       0.19005079      -0.12060286       0.82558802      -1.58469662       0.92145134       0.53610718      -4.51888082
O       -0.45917666       3.96989155      -0.50372016       1.00106168       1.68515778      -0.02650266       0.27196994       0.80097381       0.18962932      -0.19408550       0.40524734       1.29352010      -0.06803036      -0.20959776       0.22534205       0.38626638       1.00591044       1.45344348      -0.11344749      -4.66754394
O        1.18380952       1.27009583       0.81614876       0.10828158      -1.53850436       0.59137750       0.29333210       0.77677546       0.36094587       0.26007007       0.48726407       0.97922263       0.15293344       0.18443123       0.01906371       0.72004346      -0.03307268      -1.62835685       0.38145392      -4.58318806
O        0.75718564      -3.36056328      -1.94092536       1.04103839      -1.58656216       0.93183857       0.33317998       0.88417822      -0.33438293      -0.37970636      -0.27074944       0.99463732       0.02682190      -0.59971840       0.16361525       1.28675949       1.02244357      -1.75953565       0.97077887      -4.45178445
C       -0.95791042      -0.14366013       3.65364289       1.17281330       0.95461726       0.40532392      -0.08497348      -1.73783297      -0.25728322       0.61286920      -0.29866185      -0.48638536      -0.49982692       0.34539726      -0.44298047      -0.95464969       1.19905163       0.89692189       0.42963947      -5.69548006
C        0.00436366      -2.87677264      -1.05509567      -0.29856965       1.57430267      -2.03887820      -0.05817264      -1.11572367       1.02326947       0.35339269       0.88985448      -0.96039089      -0.01169473       0.32693998      -0.33627517      -1.55443823      -0.28501657       1.71210200      -2.11916756      -5.54328519
C       -0.95243651       2.87921619      -0.52301490       2.10045242      -0.13545765      -0.56597763      -0.06230338      -1.10941451      -0.36782478       0.55126265      -0.20106221      -1.76101161      -0.01507306       0.53583326      -0.27463140      -0.36882841       1.99559159       0.34157046      -0.46035224      -5.49211431
C        0.40932971       0.33959293       0.49670446       0.24192861       2.18795705       2.37662792      -0.08360372      -0.80346129      -0.51515642      -0.64075250      -0.56456168      -0.91258189      -0.00418447      -0.55592864       0.09672203      -1.10731646       0.42521739       2.10635769       2.53575273      -5.44319551
C        0.81923836      -0.26992184      -3.19935346      -0.38604182      -0.77454305       0.48346224       0.04637523      -0.14555665       0.18703136      -0.03484961      -0.04421697      -0.20660989      -0.10943215      -0.07283324      -0.02202937       0.11630098      -0.44525116      -1.06853440       0.41287371      -5.32910834
C        1.57447362       0.68559963      -2.58601379       0.77504969      -0.51340657      -1.40493751      -0.03707439      -0.26701808      -0.02283006       0.13229474       0.09818188      -0.35345937      -0.13660799       0.03973155      -0.12945283      -0.18534619       1.05401997      -0.44018396      -1.29973598      -5.54439738
C        2.79913616      -1.13926530      -2.91222835      -1.38298333      -0.84845102      -0.66064191      -0.06434365      -0.39438595      -0.19447122      -0.05899666      -0.33159597      -0.42925563       0.03272186      -0.12680113      -0.11134359      -0.20385108      -1.34861780      -0.71064366      -0.39259306      -5.77105262
N        1.54819942      -1.45402575      -3.37602568       3.51319218       3.53321147       1.09098327      -0.03287616       0.42453027       0.10205824      -0.10995161       0.15905358       0.47596317       0.04740413       0.07616017       0.09387410       0.22674463       3.31380648       3.62016291       0.98599172      -4.90213795
N       -2.10709453       2.63754249       0.10061175      -1.93736911      -2.39383125      -0.63797224       0.12576345       0.96067849       0.05184903      -0.33576170       0.27970336       0.27351015       0.12583051      -0.20904370      -0.12628485       0.41375791      -1.94468606      -2.21275984      -0.58133797      -4.26508045
N       -0.24406284       0.48399884      -0.61885458      -2.48574924      -1.64302170      -1.89331234       0.07814423       0.52192729       0.20512778       0.22718200       0.11396518       0.61996970      -0.12178260       0.26333517      -0.08223211       0.94609618      -2.07941402      -1.47755714      -2.16841653      -4.66229247
N        0.16145664      -0.34222046       2.84258008      -1.28487968       0.59566885       0.73372132       0.10955536       0.78863267       0.01714100      -0.21967389      -0.09120975       0.39571345       0.26289646      -0.44070661       0.18171938       0.85226520      -1.24042289       0.51141380       0.74633040      -4.67643621
N        2.87930632       0.14337218      -2.51550031      -0.83074349      -0.97750336       0.94628489      -0.05410631       0.35172809       0.02225285       0.09800936       0.15433855       0.33286331       0.11766490       0.04236303       0.11394226       0.18122061      -0.76741091      -1.00893722       0.85466753      -4.86290501
C       -0.70846009       0.80519646       4.87522221       0.05737806       0.08922213      -1.98065603       0.09686657      -0.06660729       0.05735309       0.10968212       0.04130066      -0.02685745       0.13469202       0.00993687       0.15809788       0.07243386       0.01841696       0.16204042      -1.99379427      -4.41652786
C       -2.97699928       1.44439960      -0.32480285      -0.47940820       3.15851116       2.75367975       0.06262170      -0.27232140      -0.06689131      -0.07628130      -0.21604311      -0.23223397      -0.06128351      -0.22054463       0.00095234      -0.17289585      -0.72228196       2.99345096       2.69286965      -4.77380367
C        0.09571201      -3.13365054       0.42042410       2.93299866      -1.28925824      -1.91274095       0.08077059      -0.08847738      -0.28594487       0.03947488      -0.08579518      -0.24803662       0.06462866       0.01452319      -0.27488054       0.29360793       2.93415331      -1.30379962      -1.86994104      -4.76605175
C        1.17254806       2.01451349      -2.06166553      -1.05280030      -0.01369607       1.85862505       0.04781454      -0.14572454       0.16089437      -0.24207983       0.03305722       0.00127110      -0.09110393       0.03860818      -0.04921025      -0.10863749      -0.92090380      -0.36138586       1.70725769      -4.89483164
C        0.76030165      -2.01027131       1.22191656       1.68280768      -2.90338039       0.23715530       0.09187127      -0.20297096      -0.04051208      -0.01931937      -0.00407412      -0.33762027      -0.01169303       0.00269455      -0.05588683       0.00994871       1.79791709      -2.89365580       0.25592956      -4.66663410
C       -0.19822633       1.72990346      -1.33840919      -2.29980016       0.26958266      -0.67182869       0.00828518      -0.18029456      -0.21471775       0.12962722      -0.05150487      -0.07645411       0.26543287       0.03077517       0.36135997      -0.22432709      -2.09683504       0.17411635      -0.58731811      -4.86244771
C       -0.02652347      -0.79400575       1.48327017      -1.09800446       0.91905689      -1.14111364      -0.02171473      -0.16486587       0.07388536      -0.15236742       0.08350900      -0.19879458      -0.30989889      -0.03030135      -0.11248674      -0.70072764      -1.26231684       1.04730938      -1.13455114      -5.17254592
H       -0.24821401      -0.27059403      -3.31516480       0.10506763      -0.07022842      -0.24752358      -0.06532993      -0.01932010      -0.05539362      -0.00647667      -0.01538843      -0.09578851       0.06644746       0.02842949       0.02544685      -0.20402898      -0.03285220      -0.07296253      -0.31971462      -4.12813671
H        3.58625650      -1.86300254      -2.78644729      -0.03193693       0.07338101      -0.09042804      -0.07830985      -0.11428206      -0.02938380       0.02908086       0.05975304      -0.07163341      -0.07495323       0.03417615      -0.00781475      -0.09758670      -0.04398477       0.10258599      -0.12971957      -4.09532521
H        1.26924467      -2.43701410      -3.32017255      -1.10194659      -0.42573977       0.38821641      -0.13457435      -0.16787166      -0.21131811       0.06334185      -0.12339277      -0.55252813       0.16492571       0.13292164       0.36061161      -0.42513066      -1.01998244      -0.20880166       0.34085145      -3.90329096
H       -2.49709296       3.36944699       0.71331561       0.45015001      -0.71410102      -0.97415847      -0.19690022      -0.15079004      -0.06461494       0.02292803       0.05509693      -0.25375931      -0.04677927       0.01589025       0.00000374      -0.23553665       0.47460333      -0.79650444      -0.98579065      -3.66952740
H       -0.90847117      -0.29312068      -0.92075342       1.42818379       0.86353320       0.40296248      -0.14741045      -0.15235950      -0.04717818       0.02087843      -0.11135236      -0.70863729      -0.31540064      -0.04594673      -0.24078159      -0.17596877       1.30476907       0.77034192       0.37371067      -3.74792570
H        0.89588183       0.32057446       3.00561762       0.27560088       0.08956574      -0.32564807      -0.19105482      -0.23163863      -0.05385481      -0.04447239      -0.03245987      -0.22780681       0.05191084      -0.01264567       0.01703218      -0.09358809       0.25940066       0.08303069      -0.31802809      -3.58705742
H        3.57186651       0.37052041      -1.78849173      -0.51802677       0.30726665      -0.87572235      -0.19711816      -0.38655982      -0.04938847       0.06848517      -0.12980213      -0.18192344       0.07109460      -0.08074996      -0.02078588      -0.23920019      -0.50418723       0.26803904      -0.83503873      -3.63620450
H       -0.88991839       0.28143370       5.78731728      -0.09967649      -0.21227123       0.55192041      -0.05490176      -0.01344646      -0.00007525      -0.06217572      -0.00138383       0.01085832       0.01410005      -0.00885713      -0.02268034       0.13333918      -0.08004658      -0.24386693       0.54662870      -4.08611284
H        0.30766004       1.19159842       4.80537701      -0.00258495      -0.09601727       0.39491501      -0.04883514       0.07667739       0.02992438       0.02668938       0.04467868      -0.00064274       0.00819422       0.00041780      -0.00101701      -0.01189348      -0.00307757      -0.08279954       0.42997130      -3.99028669
H       -1.37822366       1.67648458       4.77158070       0.12312368      -0.58940995       0.13281564      -0.04742740       0.03461318      -0.06764933      -0.09455920      -0.05707108       0.08729022       0.04339685      -0.00244901       0.02401484       0.02488504       0.13396109      -0.60029183       0.14707051      -4.01175489
H       -2.72082782       0.63237065       0.28247768       0.05461889      -1.26897776       0.76941317      -0.05774890      -0.10687424       0.04276224       0.03902702      -0.13063154       0.25963626      -0.00344492       0.00433397      -0.03191321      -0.03264189       0.11257267      -1.26166399       0.84800154      -4.01442323
H       -4.01006031       1.76196551      -0.14571849       0.22813725      -0.26245949       0.21464817      -0.05318854      -0.02776478       0.22369924       0.00412409      -0.09014763       0.09042033       0.00727395      -0.00710233       0.02639444      -0.01723969       0.19518571      -0.28631035       0.24335760      -3.90984411
H       -2.96201992       1.18147373      -1.32196355       0.68142927      -0.16188645      -2.16414022      -0.05995737      -0.07810378       0.04714708      -0.00632152      -0.02721764       0.07767783       0.04894399       0.01598649       0.11590008       0.07948451       0.65061123      -0.13122874      -2.28700849      -3.99425507
H        0.75240058      -4.03555441       0.43779659      -0.36304215       0.59742606       0.61069059      -0.04775662       0.01026514       0.05512580       0.00542154      -0.03766532       0.14676589       0.00395359       0.00216671       0.08215742      -0.02212256      -0.38633702       0.59364015       0.58412797      -3.77516733
H       -0.84113955      -3.42721415       0.76284945      -1.66730845      -0.12007912       0.86159205      -0.06360629       0.11464301       0.11980146      -0.04601278       0.06913485       0.14241045      -0.00780276      -0.03038142       0.08828828       0.01792203      -1.64692187      -0.11653158       0.90344036      -3.93400911
H        1.86954021       2.34670448      -1.27624989      -0.17625660       0.09696642      -0.61639577      -0.04668260       0.05878757       0.08685046       0.00667431       0.01390936       0.02863064       0.03146426       0.08063595       0.08238510      -0.03901314      -0.32580476       0.09946766      -0.61267797      -4.01876117
H        0.97832793       2.76536202      -2.81962466       0.38555562       0.05767091      -0.00820013      -0.06521340      -0.03861094       0.03098861       0.00967922       0.02762389       0.07354954      -0.10916906       0.01525458      -0.05399508      -0.01059869       0.30921936       0.17894009       0.03706274      -4.07410453
H        1.82541847      -1.81811833       0.80981600      -1.68060958      -0.26651067       0.87868506      -0.05648952       0.13411790       0.00352958      -0.03028572       0.01648472       0.02877652       0.00284180      -0.02225174      -0.03571926      -0.00989359      -1.68188433      -0.24010729       0.84979280      -4.03351333
H        0.79581970      -2.55722380       2.19100904       0.78154123       0.83566558      -0.34265330      -0.05842782       0.00622312       0.06449643      -0.00930733      -0.02838641       0.13687298       0.02526163       0.03886105       0.12546235       0.08228198       0.74578683       0.78844575      -0.28110005      -3.62311843
H       -0.95191729       1.63209867      -2.15947056       0.68179816      -0.34686714       0.30121773      -0.05955101       0.02916071      -0.07934443       0.08842762      -0.00675441       0.00028532      -0.01797248       0.05819274      -0.02145150       0.01465178       0.64812126      -0.28246865       0.43713689      -3.70488187
H       -1.12794137      -1.05830765       1.32252383       1.50663793       0.68782091       0.35106540      -0.02982792       0.09553056       0.00947545       0.12251094       0.03411976       0.05956425       0.00659284       0.08334778       0.01361469      -0.10841621       1.52461712       0.64564674       0.27919736      -3.79182131
45
Properties=species:S:1:pos:R:3:original_dataset_forces:R:3:LES_q:R:1:LES_BEC:R:9:forces:R:3:energies:R:1 original_dataset_energy=-202.7807159423828 energy=-202.4670700638192 stress="inf -inf -inf -inf -inf inf -inf inf -inf" pbc="F F F"
O       -1.64674878      -1.55874753       3.10932565       1.55039787       0.32135865       1.59380209       0.23521608       1.30264144       0.26532443      -0.08623053       0.18248984       0.36674037      -0.04719387       0.50863592       0.20075438       0.86945245       1.55856936       0.30421735       1.48049925      -4.65085589
O       -0.91103399      -0.77174187      -3.83107615      -0.04039462      -1.20994508      -1.04434502       0.30002335       0.70698030       0.24928782      -0.18989112       0.04611151       1.25908365       0.39426190      -0.21659010       0.18672544       0.96129973      -0.11791056      -1.21501104      -1.03443498      -4.60849401
O        2.87559271      -0.31919727       1.89341545       0.27730760      -0.69034111       1.07945311       0.30511874       1.09785090      -0.06961364       0.49423202       0.05752581       0.54134301      -0.24531650       0.43531646      -0.31940875       0.99135204       0.12284776      -0.87399012       1.10737030      -4.52237859
O        1.70307398       3.21822071      -0.25767761      -1.69551551      -0.94155854      -0.55873084       0.30335212       1.16856132       0.11716488       0.37664917       0.11035704       0.79174614       0.13578354       0.41419291       0.04747275       0.52688477      -1.66798486      -0.86708043      -0.51442875      -4.58927202
O       -1.65053761       0.81142151      -2.53839588       0.68192035       1.23219478      -0.07689225       0.36102697       1.05432109      -0.22713577      -0.24843061      -0.08462078       1.11934414       0.05891941      -0.29718530       0.51598162       0.86457990       0.71819230       1.19503436      -0.02880328      -4.59906393
C       -0.53043330      -1.38844228       3.69914913      -2.63849330      -0.35154882      -4.86457157      -0.09400084      -1.89026360      -0.30427302       0.16724538      -0.28911492      -0.18374143       0.17681471       0.00014823      -0.03139378      -0.76166571      -2.70087541      -0.29207633      -4.73779970      -5.72984001
C       -0.75848520       0.34428442      -3.30778551      -1.02052665      -0.73680413       1.45427895      -0.06795892      -1.49641439      -0.12120084       0.43257832      -0.11970114      -1.50358260      -0.81173734       0.54684604      -0.75485399      -0.76375001      -1.16470167      -0.84505354       1.43245202      -5.55881523
C        1.88359237      -0.23594132       1.18005443       0.15150449      -2.78185058       3.61302257      -0.06625170      -1.33964273      -0.11247654      -0.55859757      -0.22331469      -0.62089692       0.55836614      -0.46695993       0.63408295      -1.06608577       0.19081570      -3.29231337       3.80397908      -5.31958497
C        0.72142625       2.56794167      -0.73432565       4.85395956      -0.14194620       2.20349598      -0.06807549      -1.49935410      -0.04118236      -0.60195397       0.00648010      -1.28772962       0.03475478      -0.66204713      -0.05537330      -0.33808839       4.88850952      -0.19908942       2.16059756      -5.47910706
C       -0.65152788      -2.29168797      -1.36055267       2.05123377      -1.93744731       2.62920904       0.03428041      -0.29035493      -0.02685097      -0.09016799       0.03959979      -0.15260299      -0.00406951       0.09586562       0.03716104      -0.06460437       1.86943979      -1.87398656       2.49139961      -5.39272571
C       -0.67231381      -2.43745565       0.01863861      -0.43677053       0.66097426      -2.68059826      -0.03089159      -0.41073720      -0.33475950       0.13292191       0.15818395       0.25193020      -0.00691775      -0.09827354      -0.22548685      -0.31824345      -0.28928169       0.60859366      -2.68564836      -5.24298313
C       -2.62974381      -1.65275645      -0.61750054       1.48493302      -1.73468971      -1.21261954      -0.07704649      -0.08127696       0.02195016      -0.06424410       0.00292134      -0.20338097       0.08554793       0.19799333       0.24875703      -0.52403292       1.18467509      -1.76292826      -1.08753982      -5.51913015
N       -1.87343717      -1.96874404      -1.75658488      -2.69418502       2.25435567       2.09972239      -0.03154038       0.25100280       0.17669456       0.08837310       0.11741163       0.21345808       0.04223864      -0.18410492      -0.16836800       0.49770054      -2.31118059       2.29360119       1.97475559      -4.93429081
N       -0.32507914       3.13855863      -1.22325552      -2.78783011      -0.33321327      -2.34547734       0.07145541       0.77812401      -0.02096313       0.28192626      -0.35646205       0.65934408      -0.11944789       0.31805325      -0.01456797       0.29446326      -2.69736574      -0.32084106      -2.30312063      -4.77657960
N        0.56672120      -1.18288362       2.98252916      -0.40905982       0.23307598      -0.67345184       0.08413013       1.05212902       0.15091733      -0.10911055       0.20422167       0.21024537      -0.14246010      -0.53344380      -0.14760132       0.84346974      -0.50383514       0.09063785      -0.66095186      -4.72188675
N        1.93128824       0.58641112       0.21223021      -2.69432378       1.89988101      -3.42443371       0.07968484       0.19052116       0.09258540      -0.02109120       0.00363619       0.65229224      -0.49035099      -0.05748081      -0.49084731       0.89208240      -2.31492213       2.00092802      -3.24960635      -4.47580134
N       -1.96088552      -2.10364771       0.47419387       1.39799845       0.65745312      -4.02946186      -0.05932983       0.10381196      -0.17640909      -0.01629340      -0.02841605      -0.01034507      -0.03456860       0.01599538      -0.00214697       0.65815503       1.37853888       0.65845109      -3.93565018      -4.95401922
C       -0.29904532      -1.48667455       5.08734465      -0.27014756      -3.03615642       2.59899783       0.07600554      -0.07748795      -0.02260470       0.15973105       0.02182129      -0.10786384      -0.07926720       0.05225449       0.11213644      -0.25511202      -0.17239542      -3.01014917       2.48560310      -4.62934257
C       -0.54948050       4.57520580      -1.14662075       0.63245368      -1.17919469       1.87631786       0.06947616      -0.08148069       0.21632424       0.00856390       0.11912191      -0.13077044      -0.02928666       0.00132551       0.25405112      -0.18248805       0.55066598      -1.23328011       1.93000132      -4.82776774
C        0.61475801       0.91496229      -3.39406872       1.07414627       2.89834499       1.27613735       0.06365464       0.25165725       0.19167737      -0.20005793       0.08258520      -0.13624638       0.26555311      -0.03581535       0.00157130       0.02371169       1.24557550       2.92641758       1.37624961      -4.63269896
C        0.54036462      -2.37322855       0.80016583       0.26991332      -0.51354688       1.07550371       0.04657810      -0.02419682       0.34359407      -0.00674794       0.08933271      -0.11632240       0.02068877       0.03601365       0.03287569      -0.00528702       0.34592175      -0.62628056       1.18835743      -5.09348061
C        1.43771458       0.64701355      -2.10702538       0.26050717      -0.95973325      -1.36354971       0.10362522      -0.02390540       0.01614147      -0.07763780      -0.07324236      -0.07013457       0.12971005       0.15709347       0.15880683      -0.36948291       0.31271508      -1.05870141      -1.53510089      -4.57021483
C        0.62729311      -1.06201279       1.53818798       0.70835513       2.20550036      -0.41792786      -0.01919100       0.04132564       0.05309171       0.09057760       0.10869323      -0.16230584       0.02122414       0.07691440       0.13244652      -0.70773056       0.63482854       2.47223889      -0.41265005      -5.04573198
C        0.92188156       1.01137733      -0.76068783      -1.17226899       1.68426335       0.46881858      -0.02309259      -0.23592757       0.19013300      -0.15524644       0.07000933      -0.14043762      -0.01686407      -0.02686053       0.09266517      -0.46338146      -1.53488734       2.02881484       0.46620962      -5.10162287
H        0.27963126      -2.46316624      -1.93865132      -1.44260001       0.33270076      -0.01531171      -0.06673864      -0.00382918      -0.01327394      -0.03982737       0.00697712      -0.07151469       0.02350801      -0.04084487      -0.00779849      -0.04428368      -1.44725385       0.23745044       0.03955657      -4.13004234
H       -3.55412030      -1.10623038      -0.59828389      -0.13714784      -0.32397792      -0.19201100      -0.08388510      -0.02361801      -0.02392527       0.02451670       0.00664526      -0.05231309       0.02108606      -0.03890751       0.00103574      -0.05403638      -0.09893853      -0.30424392      -0.22051235      -4.13511292
H       -1.88291013      -1.43270171      -2.64482617      -0.48234090       0.14964411      -0.97854871      -0.12293725      -0.15928143      -0.06195880       0.30232680      -0.12357885      -0.33004366       0.22872635       0.08299552       0.06855373      -0.68899676      -0.45030164       0.12453776      -0.89923688      -3.85358059
H       -1.04267919       2.59786749      -1.75565648       0.86346352      -0.15930872       0.77380407      -0.17055339      -0.24650785      -0.11727539      -0.07072989      -0.08916492      -0.48832513      -0.06451755      -0.04874897      -0.17743487      -0.21198457       0.84394341      -0.16165401       0.75483176      -3.70074527
H        1.35010815      -1.10844684       3.56910229       1.80576169       0.38471794      -0.32635751      -0.19348146      -0.21996749      -0.02808403       0.01831532       0.00651574      -0.19760877       0.00883378      -0.05529582      -0.01848541      -0.11716980       1.82415604       0.37822699      -0.32454239      -3.49267011
H        2.62942338       1.22536540       0.42207223       1.70804584       1.76277077      -0.46652409      -0.18628468      -0.16729598      -0.05192836       0.00389322       0.07325215      -0.30311682       0.07026056       0.05916529       0.03747058      -0.22061271       1.64648318       2.13377243      -0.70607406      -3.44952940
H       -2.13129973      -1.91336906       1.43087220      -0.37745851       0.35364628       1.63338196      -0.12259474      -0.20860045      -0.11059957      -0.06202837      -0.13092307      -0.22882731      -0.10314855      -0.22798685      -0.20359278      -0.69511542      -0.37026314       0.35350915       1.72729248      -4.01725424
H        0.25006223      -2.49806309       5.23685789      -1.37613535       1.24438429      -0.00332415      -0.03802996       0.01331307      -0.05212908       0.01159622      -0.02101536       0.06697213      -0.00629179       0.00449071      -0.01071320      -0.02820439      -1.37463611       1.25007129      -0.01565976      -3.72870436
H       -1.27304709      -1.45370936       5.59604168       0.78547323      -0.02667543       0.25259188      -0.05238652       0.05928370       0.00273877      -0.07193426      -0.00373698      -0.04289976       0.05521229      -0.04782138      -0.01646775       0.08306226       0.77803237      -0.03733495       0.22507534      -3.95337909
H        0.44850338      -0.83435327       5.42725372       0.50103027       1.40442157       0.65849513      -0.05477032       0.03511365       0.04194579       0.03662099       0.01611519       0.00639780       0.03395156      -0.00044531       0.00007539       0.03017471       0.48249982       1.40513948       0.67186230      -3.91453861
H       -1.33382702       4.58886719      -0.37631610       0.33329335       1.18012261      -0.14063513      -0.05583705       0.00811291      -0.10664798      -0.02193836      -0.01376868       0.06468416      -0.02742793      -0.03486372      -0.00463145       0.01127189       0.39181390       1.18909877      -0.18746591      -3.87031537
H        0.42605889       4.98189163      -0.83491910      -0.81390381       0.30556390       0.00235492      -0.03392799      -0.05532070      -0.04669718       0.01000248       0.07033803       0.07395744       0.00742931      -0.01660667      -0.01355168       0.00256032      -0.82686497       0.27068677       0.00934330      -3.94159219
H       -0.90317500       4.97631931      -2.05771327      -0.24966452       0.32017252      -0.95063752      -0.06436834      -0.02106976      -0.13676431       0.04661452      -0.02785872       0.06557010      -0.05966210       0.02886010      -0.19337613       0.06145403      -0.24983450       0.29393752      -0.95669060      -4.04801910
H        1.24394393       0.37030321      -4.08467913      -0.44387648       0.57219106      -0.93348628      -0.05942032       0.04785786      -0.03378601      -0.06342550      -0.02709998       0.00022056       0.00310341      -0.05038615       0.00251528       0.12615631      -0.46245742       0.58884999      -1.03441926      -3.83414786
H        0.58157587       2.05357432      -3.46360755       0.12818049      -1.51255500      -0.75306070      -0.05105918       0.03258712       0.00778813       0.07775112       0.02599921       0.20550286      -0.20299266       0.04509906      -0.01438275      -0.01381055       0.12466632      -1.48090547      -0.75888961      -3.94036868
H        1.45857620      -2.64026904       0.27559423      -0.38886979       0.02818338      -0.14792810      -0.06490879       0.13055279       0.06781591      -0.01264107      -0.06173535       0.00653397       0.04098087      -0.02069674       0.07648469       0.03880724      -0.34520153       0.07734912      -0.14747041      -4.02856210
H        0.38732159      -3.03341579       1.59011078       0.42826802      -1.71044946       1.34158242      -0.05859869      -0.01977436       0.04040479      -0.01062865       0.00108068      -0.09547503       0.09168797       0.03953279       0.00253910       0.05175678       0.30342536      -1.57764861       1.19112572      -3.60246595
H        2.51804996       0.91159582      -2.25729036      -1.14966774       0.26124468       0.30278796      -0.04916235       0.10405606      -0.02122157       0.12585355       0.01639448      -0.00732948      -0.01734698       0.02637257      -0.01246789       0.11331758      -1.13158670       0.31428686       0.20798745      -3.97117229
H        1.43101668      -0.41073418      -2.11260509       0.45687675      -1.43543184       0.26875570      -0.06198765       0.03743804       0.01849790      -0.11149784       0.01597454       0.07792348       0.02794896      -0.01721056      -0.00178147       0.04205266       0.44281457      -1.49317278       0.28672487      -3.69796694
H       -0.16137612      -0.40886641       1.16240454      -0.39125046      -0.24523202       0.68025434      -0.04773877       0.03122770      -0.01426049       0.03449668      -0.00307269       0.06586036      -0.01231890       0.06656362       0.04443232       0.01131347      -0.41010956      -0.34058471       0.78304383      -3.66316541
H       -0.08678824       0.61530352      -0.54543525       0.70241731      -0.38434392      -0.27863446      -0.05557306       0.07783774       0.01194382      -0.03443389       0.01703164      -0.05533572      -0.01540531      -0.03115238      -0.00386298      -0.10091190       0.80365833      -0.32952556      -0.35762205      -3.96966952
46
Properties=species:S:1:pos:R:3:original_dataset_forces:R:3:LES_q:R:1:LES_BEC:R:9:forces:R:3:energies:R:1 original_dataset_energy=-199.97042846679688 energy=-199.96449624471308 stress="inf -inf -inf -inf inf -inf -inf -inf inf" pbc="F F F"
O        3.18119216      -3.36312604       1.31394982      -0.27614072       0.91449302      -0.00831498       0.30921489       0.71004485       0.41647142       0.04059574      -0.03327508       1.31870630      -0.26890366       0.18216647      -0.12797868       0.41542437      -0.27784551       0.96657111      -0.02058272      -4.49487483
O       -2.41398191      -1.51523447       0.46278068       2.00997949      -1.82049882      -1.16688192       0.27389207       0.94872643      -0.25254701       0.09169139      -0.34890753       1.13185211       0.15289577      -0.07716501       0.28435765       0.82028202       2.04426636      -1.81895343      -1.07733281      -4.79624110
O       -1.05215192       2.13868427      -0.59193021      -0.18738027      -0.19771053       1.38842630       0.23775735       0.79430495      -0.32803495      -0.23244665      -0.16620864       0.86248161       0.02335544      -0.44510257       0.28836367       1.21893954      -0.23053270      -0.29539911       1.40144440      -4.84051856
O        1.81092358       1.18549991       1.50069535      -1.15623140      -2.02320123      -1.72701728       0.32609165       0.95280982       0.15442413       0.08081331       0.43853795       0.92215834       0.35245172       0.21460549       0.33371172       0.58549567      -1.10790530      -1.96856520      -1.72319944      -4.43939501
O       -4.02482748      -0.04289991       0.40951154       0.64429992       0.79544860       0.21441421       0.38463739       1.62478017      -0.42698147       0.14165576      -0.42288851       0.77165303       0.10602943       0.48742069      -0.05104671       0.77488384       0.50886178       0.81046865       0.28366921      -4.45875545
C        3.84809256      -2.31940961       1.28014958      -1.00149870      -3.91897869       0.19424094      -0.06773795      -0.94498132      -0.10715270      -0.28717276       0.44332412      -1.98160613       0.63158002      -0.53540285       0.55455664      -0.39699963      -1.09206725      -3.92303846       0.12368903      -5.96120383
C       -2.95512462      -0.49454588       0.87569594      -1.80373240       1.05418146       2.03635979      -0.04274249      -1.65212333       0.67080320      -0.42344719       0.83319656      -1.28849324      -0.47633200      -0.31790466      -0.37776433      -0.84698936      -1.82192789       1.01959357       1.96312047      -5.52489645
C       -1.42046237       2.07110596       0.59652996      -1.09278476       0.29502550      -1.43249559      -0.09641212      -0.90173229       0.71850333       0.53372216       0.63316520      -0.92684479      -0.04706427       0.45537957      -0.04879044      -1.27564928      -0.95782085       0.27542300      -1.54289493      -5.46940786
C        1.22446859       0.18938255       0.95386410       7.11613464       2.98947597       2.24379826      -0.07042561      -1.54844162      -0.25424801      -0.10902823      -0.41658614      -0.94049111      -0.50518563      -0.11470456      -0.46606695      -0.36666772       6.94904458       2.92726826       2.27381054      -5.62396131
N       -2.35970354       2.95014811       1.07502222       1.02848852      -0.62879205       1.01432562       0.09749591       0.58638053      -0.40033016      -0.32519587      -0.58213393       0.80645335       0.13453586      -0.06844032      -0.18373735       0.48498174       0.99329145      -0.69678105       1.03350652      -4.76051465
N       -0.01669031       0.01426810       1.01440144      -7.09096050      -2.86545277      -0.40758052       0.04523811       1.16870243       0.08439077      -0.06770179       0.00622335       0.48999697       0.14374162      -0.18650407       0.14673101       0.27857166      -6.96199108      -2.76270810      -0.44859161      -4.77434689
N        3.39146090      -1.19609094       0.76118970      -1.33717752       2.84748745      -0.74475813       0.06378253       0.75983666      -0.36888795       0.35571812      -0.38028758       1.02305332      -0.38212455       0.38413445      -0.45035736       0.46427505      -1.35724306       2.84361075      -0.71674848      -4.69414742
C        5.23572254      -2.42236638       1.77208185       3.24876761      -0.05408058       0.74055040       0.07774791       0.05574626       0.04756722       0.05964729       0.05492882      -0.10704641       0.02256722       0.03558254       0.03188096      -0.15708642       3.29790623      -0.07889645       0.73141338      -4.30593891
C       -2.79393625       4.11369228       0.33788672      -0.89340407      -0.46959472      -0.78590631       0.08403273      -0.12771373      -0.01330971      -0.05017066       0.11540116      -0.41340415       0.13225375       0.03342587       0.01102747      -0.23249248      -0.96390202      -0.46930183      -0.75899366      -4.79643959
C        0.91297233      -0.20823470      -2.02185702       0.07162048       2.35711098      -0.61466259       0.09268087      -0.16866661       0.01261899       0.00138389       0.01442804      -0.13727951      -0.00891329      -0.05878990      -0.02119798       0.03410236       0.12499283       2.19038455      -0.56895058      -5.01796516
C       -0.12239850      -1.28633356      -2.12153339      -0.95722979       0.71076763       0.72913152       0.09407485      -0.05024483      -0.01658655       0.08090854      -0.03697394      -0.19766498      -0.10384414      -0.03108527       0.05740882      -0.14084234      -0.92973689       0.59208958       0.75864940      -4.78740435
C       -2.25327682       0.23453468       2.09773254      -1.05077064       0.24563564      -1.41849363       0.08174980       0.03506016       0.00048790      -0.01788411      -0.03274017      -0.01264749       0.13828819       0.13223076       0.16674481       0.09391631      -1.07138555       0.22387273      -1.47862047      -4.49907233
C        2.15579271      -0.52386123      -1.28971231       1.79932570      -2.17244720       1.63694739       0.09238311       0.00255432      -0.00355249      -0.12315901      -0.01103621      -0.08621952       0.08380408       0.14408349      -0.00774691      -0.22990269       1.86296892      -2.17827768       1.63971332      -4.56944329
C       -1.42620635      -0.74514413      -2.79211569       1.18242943       1.05763817      -2.11107707       0.01461759      -0.44260022       0.19832286       0.11894402       0.22202689      -0.25739008      -0.01189745       0.22456859      -0.03476521      -0.22006314       1.12385657       0.99257105      -1.97811591      -4.74836688
C       -0.99136579       0.94618708       1.56067944      -0.70717436       0.38903442      -0.21130450      -0.02743882      -0.59837995       0.24073591       0.41878325       0.13155335      -0.31542281      -0.07027874       0.29975862      -0.16449514      -0.35248396      -0.65743444       0.35163444      -0.20684543      -5.15664622
C        2.01589990      -0.91553944       0.24638787      -0.51320845      -1.06237769      -0.90420336       0.00022820      -0.56444803       0.08248143      -0.10134723      -0.04075590      -0.09901445       0.11638530      -0.11460088       0.14449017      -0.24295382      -0.47531916      -1.08067086      -0.88319380      -4.73216461
N       -2.49816751      -0.17939258      -1.91800201      -0.51378268       0.09465346      -0.50081110      -0.02838957       0.48737407      -0.14153971      -0.02494901      -0.13436930       0.24431596      -0.03562765       0.27656494       0.02736493       0.67903424      -0.24911548       0.07071751      -0.44990673      -3.58036742
H       -2.82431436       2.77013588       1.96351433       0.59783983       0.02097572      -0.60096043      -0.19239509      -0.21210683      -0.01556662       0.04937118       0.07944577      -0.27947796      -0.06644411       0.03778129      -0.00258814      -0.22490314       0.61766079       0.04270646      -0.59241874      -3.59021812
H       -0.46380481      -0.94427747       0.82065332       0.84338373       1.97695863       0.10863820      -0.18411812      -0.33812721      -0.17331576      -0.10753049      -0.21485734      -0.29285169       0.05470327      -0.16232571      -0.02205525      -0.16348315       0.77950479       2.01700583       0.12093175      -3.50026272
H        4.00732994      -0.38605645       0.72111630      -0.38802785      -0.37968975       0.22169085      -0.20160237      -0.19386470      -0.05494932       0.01890565       0.01398505      -0.28706547       0.01353154      -0.04605203       0.01439803      -0.21705516      -0.35290513      -0.35944147       0.22921377      -3.57767512
H        5.59648943      -3.45677233       2.13928342      -1.11194801       1.22751880      -1.62167406      -0.03408609       0.15668516      -0.12233416       0.06836485      -0.17941141       0.15740165      -0.07338526       0.10970076      -0.09417468       0.04223952      -1.13264918       1.26064485      -1.61172610      -3.90850252
H        5.35601234      -1.95829654       2.75592399      -0.15153264       0.89679331      -0.35388327      -0.04803221       0.00921057      -0.00480793       0.03479736      -0.06424400       0.02955631       0.00412804       0.07603954       0.02102540       0.09984598      -0.12636244       0.89116503      -0.32441861      -3.90065719
H        5.99377680      -1.96792459       1.03086483      -1.06446278      -0.69444215       1.31538856      -0.04768023      -0.03598130       0.05922590      -0.07748092       0.01478298       0.00817733      -0.04525728      -0.03397984      -0.03143017       0.02847129      -1.07002159      -0.69831952       1.32144376      -4.01652052
H       -3.49988818       3.74761486      -0.45051673       0.76526648       0.70662147       0.23886985      -0.05117983       0.01316314      -0.01552520       0.05635464       0.01851322       0.01485701       0.00857978       0.05345517      -0.01907293       0.04356372       0.77965478       0.72237118       0.21369205      -3.95471233
H       -3.37298322       4.77684498       0.98483348       0.24841636      -0.19800475       0.04493121      -0.05741107       0.02640946      -0.07520930      -0.01068478      -0.06552661       0.08712341       0.00247760      -0.05746029       0.07598638       0.00733191       0.24271688      -0.17292460       0.05166643      -3.98473892
H       -1.93864965       4.66273928      -0.06510171      -0.30936354      -0.23564418      -0.13247217      -0.05100040      -0.03959573       0.15064017      -0.02570306      -0.01183126       0.05615033      -0.03747664      -0.02764398      -0.03739589       0.01471900      -0.29055335      -0.24461559      -0.12925711      -4.03731190
H        0.44212484       0.73865765      -1.66815197       0.36696407      -0.69764876      -0.09246907      -0.03098102       0.03682225      -0.00311025       0.07214947      -0.02077056       0.07082458      -0.00680056       0.06992130      -0.00462481      -0.09874865       0.34664163      -0.62108218      -0.10415696      -3.99097322
H        1.34209228       0.03063667      -3.00208569      -0.74920428       0.01387976      -0.30631977      -0.06131177      -0.01303297       0.03029005       0.06079320       0.04997984      -0.00251259      -0.07381428      -0.04343048      -0.02420976       0.09914414      -0.77356446       0.07273304      -0.33376774      -3.74134282
H        0.27952695      -2.12654233      -2.68358684      -0.31417874      -0.06076223      -0.11486764      -0.06518395       0.03763665      -0.05397164      -0.01918995      -0.04573161       0.11785865       0.07110511      -0.00157549       0.00883277      -0.04466672      -0.28367257       0.00049593      -0.13327727      -3.96159923
H       -0.38645321      -1.66097105      -1.11359668       0.00338914       0.05443582      -0.66192234      -0.04361832      -0.04011785       0.03595778       0.03714455       0.02535184       0.02055852       0.01538609       0.05938333      -0.07996225       0.03625591       0.00399498       0.09118455      -0.65401113      -3.97212560
H       -3.03095388       0.89991158       2.48733377       0.56207824       0.26041830      -0.20171730      -0.03931398       0.05984636      -0.03328552      -0.02107617      -0.03048676       0.07461438       0.02798219      -0.02522714       0.02782424       0.03184301       0.54022237       0.23339446      -0.18475220      -3.88118480
H       -2.02588773      -0.39216381       2.93207479       0.40601125      -0.85705721       0.11009780      -0.05400041      -0.02578573      -0.00880468       0.05068474       0.03292838       0.02921584      -0.08126655      -0.08586595      -0.05402860       0.17973805       0.38599733      -0.80753595       0.12203011      -3.99875342
H        2.58144045      -1.44283342      -1.76307607      -0.21058844       0.45594460       0.39687735      -0.05747832       0.05397748      -0.05356824      -0.04114130      -0.04463352       0.06458640       0.03087717      -0.02993072       0.02749656       0.05693008      -0.19593970       0.42276612       0.33951980      -3.81917664
H        2.99489594       0.19539696      -1.39391875      -0.94336778       0.05971471       0.11921860      -0.05150121       0.08099625       0.08285496       0.04642335       0.07502448       0.02579717      -0.00720867      -0.05148056      -0.00529417       0.03058909      -0.96477454       0.07265251       0.12174780      -4.00051835
H       -1.26233852      -0.02278620      -3.68072987       0.28258535      -0.61234629       1.90068102      -0.05709563      -0.00684620      -0.00099205      -0.05021075      -0.05620361       0.00503612      -0.14289392      -0.03674861      -0.07479279       0.03649537       0.31442519      -0.60593951       1.84159048      -3.83532640
H       -1.76068163      -1.57201719      -3.35417700      -1.39908409      -1.05297530      -0.08813915      -0.06755355       0.04420644       0.01055236       0.06374145      -0.00316785       0.01776722       0.02174794      -0.03980342       0.01667735      -0.10217440      -1.35377994      -1.00869283      -0.13336973      -3.76992288
H       -0.52807468       1.46523643       2.34281874       0.83871049       0.65345937       1.30856478      -0.05424964       0.10135275      -0.01402493      -0.07694970       0.05023055       0.06253373      -0.00150981       0.00537322       0.05329061       0.02842553       0.80554311       0.65626505       1.36284927      -3.73142887
H        1.30929756      -1.81564331       0.34124783       1.84199035       0.80961621      -0.19416729      -0.04329647       0.01720377       0.04789568      -0.04305400       0.13141719       0.03443444      -0.00244827      -0.05057736      -0.00455305      -0.00252264       1.87763093       0.74576416      -0.28188352      -3.79305931
H       -2.14626074       0.47122926      -1.20716941       0.30823395       0.93045610      -0.85447693      -0.13982752      -0.29317765      -0.12573138      -0.10222462      -0.07703746      -0.35672349      -0.06898612      -0.31079893      -0.08167452      -0.36317075       0.28164035       0.91364135      -0.88221147      -3.46071983
H       -3.34179592       0.24601108      -2.43591213       1.87035096      -1.00223672       1.27381432      -0.18675123      -0.30018230       0.00841348      -0.10430674       0.06574985      -0.19119260       0.07989846      -0.16395165       0.02829368      -0.33582459       1.66799302      -0.93493017       1.19971702      -3.44659176
H       -2.76911974      -0.88944894      -1.22505295      -0.81471014      -0.81616348       0.01986060      -0.11214726      -0.26568055       0.01573017      -0.04053892      -0.03012966      -0.27381566       0.14935724      -0.16502384       0.14934120      -0.57081938      -0.85036477      -0.68092171       0.08580865      -3.47124815
51
Properties=species:S:1:pos:R:3:original_dataset_forces:R:3:LES_q:R:1:LES_BEC:R:9:forces:R:3:energies:R:1 original_dataset_energy=-221.991455078125 energy=-222.05202755495887 stress="-inf inf -inf inf -inf -inf -inf -inf -inf" pbc="F F F"
O       -2.26702499       0.52399349       2.93873000       0.11644289       0.22104487      -0.16831999       0.19672978       1.34953564      -0.09168961       0.11976088       0.09165817       0.45685137       0.07061841       0.57642126       0.11969659       0.84376439       0.04552177       0.19790917      -0.16577938      -4.92428718
O       -0.38933137       0.82526684      -2.39355612       0.73755175      -0.14211538      -1.63434398       0.24536830       1.00539505       0.28455342      -0.03875888       0.07335459       1.22253953       0.35306247      -0.21696439      -0.02511116       0.88100424       0.65944960      -0.10541957      -1.69530992      -4.71786850
O        4.06234407       0.42574140      -3.07792139       1.18494534       0.06280070      -0.50197428       0.26023757       1.18190891       0.34071470      -0.20473924       0.12329160       0.51760694       0.21952687      -0.51026828       0.03009247       0.74057807       1.24306814       0.08572694      -0.53033482      -4.72562195
O        2.48838091       0.30088285       1.54167414      -0.14049728      -0.44410107       0.09016452       0.26529187       1.17503468       0.16882219       0.53612446       0.28361249       0.38005365       0.10286067       0.27299483      -0.04299609       0.98583184      -0.16766747      -0.45239429      -0.01329084      -4.70217917
O       -0.84170961       2.35411906      -0.98022771       0.97053766       1.81383705      -0.82081503       0.33234137       1.14145840      -0.15149107      -0.47089221       0.14093254       0.91768030      -0.00043185      -0.46666757       0.48396629       0.93432364       0.99530959       1.78982271      -0.68842056      -4.41916003
C       -1.13809419       0.58033192       3.42718935      -1.29891646       0.35303494       0.35472593      -0.05113006      -1.87499938       0.38380657       0.30952421       0.29227269      -0.26471379      -0.30016134       0.02124371      -0.37533220      -0.99777889      -1.24759450       0.32132913       0.37880010      -5.75637286
C       -0.11507291       1.99306011      -1.95114648      -1.98428583      -1.38258338       2.48110795      -0.10998689      -1.03442353      -0.25361028       0.59239572      -0.20686953      -1.61727774      -0.31113140       0.59315840      -0.63095065      -1.05454022      -1.82119869      -1.40798163       2.42122024      -5.27403820
C        3.01350594       0.18717745      -2.54597235      -2.03621888       0.85759610       1.17329240      -0.07361396      -1.65253232      -0.65496486       0.33878438      -0.56728849      -0.57187210      -0.38603227       0.48591610      -0.30504857      -0.98099678      -1.93287454       0.78001798       1.17618728      -5.55966018
C        1.51425374       0.03172904       0.85904825      -0.10037287       1.32108355      -0.30296379      -0.08558469      -1.20433590      -0.23309538      -0.50243949      -0.30570873      -0.16604513       0.13686857      -0.41359178       0.14128744      -1.68913452      -0.06163355       1.27444677      -0.15836065      -5.58267782
C       -2.80059671      -0.24775147      -0.14065191       0.50233734      -1.47234750      -1.79109287      -0.03206053      -0.14732061       0.01220856       0.11839708       0.13859569      -1.33536779      -0.00829000      -0.16044744      -0.02439994      -1.38967753       0.56718861      -1.48384135      -1.66006646      -5.68429243
N       -2.60427380      -0.50896108      -1.42848134       1.05400872      -0.07671085      -0.95842677       0.11411974       0.45108959       0.00560859      -0.01399453       0.06206813       0.45113882       0.24772406      -0.24447291       0.19753172       0.63549737       0.97047929      -0.19181135      -0.94416109      -3.68861692
N        2.06259727      -0.62551069      -3.04623127       0.90386027       1.09562027       0.59021622       0.11972152       0.67529633       0.32659411       0.20166992       0.38380012       0.48945907       0.14339627       0.02867708       0.32618830       0.57686663       0.75240079       1.08110060       0.53450655      -4.80681585
N       -2.88347244      -1.10529602       0.81702411      -1.28667235      -3.71421194      -0.68788391       0.05096652       0.22618630       0.01955018      -0.00885015      -0.28897948       0.88201253      -0.17769747       0.02422027      -0.21461119       0.79577705      -1.39224005      -3.91470396      -0.80626680      -4.33589437
N        1.47212791       0.27181956      -0.49881521       0.60044581      -0.94047451       0.47093067       0.12785138       0.86209317       0.17190451      -0.21537264       0.11290783       0.36549317      -0.28220907       0.16456461      -0.21913819       1.32008701       0.55704890      -0.99704678       0.41266628      -4.59701580
N       -0.02480605       0.13899794       2.87325215       0.62832266      -0.08076596      -0.98766470       0.06219821       0.86051886      -0.18668328      -0.12087269      -0.25077127       0.32845905       0.22478944      -0.32841696       0.27298077       0.80084273       0.67489693       0.02342598      -0.87710747      -4.72272850
N       -2.80559301       0.97934163       0.17500550      -0.94302511       2.71780634      -2.31533480       0.08717956       0.21564570       0.11575981      -0.02208882       0.14754045       0.91254861       0.06721912      -0.04017161       0.05833847       0.60040133      -0.85781312       2.76354271      -2.39284923      -3.94325363
C       -0.92642009       1.13968432       4.81611967      -3.52809763      -4.60373306       0.14554024       0.10148084       0.00271129      -0.00923450      -0.08629857       0.01981813      -0.10966675       0.06090482       0.05734707       0.07409557       0.07873053      -3.51690245      -4.62410641       0.08983280      -4.47922368
C        2.30249166      -1.47764230      -4.15329361       2.05947566      -1.36130536       0.93828511       0.07818756      -0.07511770      -0.01881896      -0.06639354       0.07753838      -0.24919028      -0.21620231       0.17778521      -0.20087141      -0.54453703       2.14637501      -1.32623562       0.91948052      -4.78860213
C        1.16691446       2.72239876      -2.28675056      -1.41447914       2.10354209      -0.57478917       0.06214787       0.13280549       0.28393679      -0.27501872       0.18090086       0.11355036      -0.19749694      -0.04965498       0.06819456      -0.13658628      -1.37321521       2.08533790      -0.58586926      -4.79847924
C       -2.52216959      -2.53274035       0.86051965       0.27491027      -0.10356153       1.75004971       0.02518986      -0.28227678      -0.02794448      -0.01468102      -0.07248839      -0.64808398       0.09512569      -0.21978218      -0.19782504      -0.15706902       0.24337222      -0.06139035       1.63875737      -4.90274627
C       -1.38717842      -2.56343937       1.87534571       0.98433477      -0.59664899       0.32003090       0.10643494      -0.17107462      -0.01720246      -0.04638742       0.00906777       0.02905063      -0.16564018      -0.00196823      -0.06727676      -0.07829079       1.00567294      -0.57803753       0.39901954      -4.71510989
C        2.28047705       2.37670255      -1.35076129       1.37605906       2.08600187      -1.22306526       0.08987120      -0.01255659       0.14936207      -0.13448943       0.15982666      -0.07474022      -0.03079570      -0.07957879       0.00905062      -0.11087969       1.34081985       2.20128983      -1.21724129      -4.82834565
C       -0.07461554      -1.89602339       1.44830716       0.10243281       0.49450088       0.82351828       0.09540655      -0.16848979      -0.05858111      -0.02806504      -0.10155188      -0.17479630       0.05685849       0.03849708       0.06735156      -0.12712171      -0.09281063       0.47492365       0.73210180      -4.75131467
C        2.59746790       0.93106115      -1.21317971      -0.06028949      -1.04916441      -0.13908629      -0.00974128      -0.42129664      -0.11175872       0.07074320      -0.22158176      -0.41154006       0.19113542       0.16152947       0.18684505      -0.28008153      -0.05519585      -0.83752254      -0.09180480      -5.08144338
C        0.16523075      -0.37301773       1.51980639       2.01321077      -2.46596742       1.51835537      -0.00005631      -0.04275148       0.09022918      -0.02426023       0.07301361      -0.32706820      -0.08959500       0.02105504      -0.18829427      -0.60151856       1.95043716      -2.38253049       1.55800432      -5.03089308
H       -2.52282047      -1.47522843      -1.73401666       0.11651733       0.60164750       0.23353720      -0.15879206      -0.21475058      -0.00045123      -0.02199264      -0.01367381      -0.29278623      -0.06464465       0.06531310      -0.02447420      -0.13514305       0.16840305       0.67773698       0.26906240      -3.53403088
H       -1.86060619       0.19083288      -1.76057732      -0.40661907      -1.03762305      -0.83722311      -0.06312338      -0.67249181      -0.27265050       0.09512345      -0.31643255      -0.23207671       0.03401992       0.29294381       0.12488068      -0.09263128      -0.60408225      -0.99287858      -0.90686141      -3.80260540
H        1.25526810      -0.74120265      -2.49120927      -0.67024851      -0.10129775      -0.12023232      -0.16212104      -0.24743759       0.05194864      -0.00234902       0.04151836      -0.18875896       0.07482711       0.03154919       0.05003400      -0.08674680      -0.70541609      -0.15960404      -0.06337020      -3.56105119
H       -3.14418554      -0.66775751       1.64437437      -0.05797773       0.23682685       2.09198475      -0.15564665      -0.32764920      -0.12361926      -0.00149086      -0.11430289      -0.25333682      -0.15654360       0.02515676      -0.10818324      -0.44262977       0.00435494       0.29714505       2.12776470      -3.66234120
H        0.64927089       0.13598123      -1.11826313       0.30579770       0.33387795       1.21097541      -0.13658667      -0.34751824       0.12820095      -0.28870081       0.10225609      -0.20338622       0.06483993      -0.32868794       0.10869604      -0.39063392       0.33670320       0.28949850       1.22401663      -3.69237697
H        0.69940650       0.15320686       3.55721331       1.19925582      -0.17959976      -0.57728654      -0.19998217      -0.22211716      -0.03800993      -0.11095287      -0.02857128      -0.17019372       0.06150644      -0.06653111       0.05064660      -0.13111432       1.17425193      -0.20036342      -0.56326012      -3.49880681
H       -2.78860903       1.26676774       1.07122517       0.21710549       0.88279343       3.55877161      -0.12194162      -0.14408224      -0.00219768      -0.03829715       0.03330278      -0.17865165       0.00888499      -0.05460043       0.02171503      -0.45926501       0.13335377       0.90007066       3.53028410      -3.61124256
H       -2.46170044       1.63570976      -0.50516385       0.34645638       0.51423019      -0.30299303      -0.10090750      -0.54654303      -0.19560609       0.17602845      -0.17472203      -0.28879965       0.15322073       0.17509136       0.14470899      -0.21783208       0.47563587       0.52237818      -0.32707151      -3.70428177
H       -1.93195653       1.36485803       5.17762661       0.26209298      -0.11354730       0.19943736      -0.04273490       0.06940886      -0.04483181      -0.12562869      -0.02265738       0.00708361       0.04925058      -0.03797976       0.03559388       0.08996630       0.25676651      -0.10469878       0.18500286      -3.85610090
H       -0.41227755       1.97362137       4.80369806       3.00417256       3.93300700       0.07422502      -0.06434020      -0.00866525       0.04333920       0.03231477       0.03561708       0.04505779      -0.00509202      -0.00833998       0.00833348      -0.03461008       2.99798549       3.92824328       0.11224573      -3.89230367
H       -0.50264585       0.31028107       5.40983582       0.04374192       0.77366352       0.07430212      -0.04683929      -0.00123990      -0.02448456       0.02772701      -0.03184566       0.02719375      -0.04374247       0.01265069      -0.03299476      -0.00170402       0.03972743       0.79029399       0.04430671      -3.93350384
H        2.58178282      -0.95801449      -5.07490253      -0.62224376      -0.08376863       0.12736553      -0.05623535      -0.02190325      -0.00012281      -0.05483497       0.03582832      -0.03154990      -0.11955124      -0.10348596       0.04131616       0.20007262      -0.62196724      -0.08378525       0.13163856      -4.07350998
H        1.42830729      -2.12084818      -4.15181303       0.24375129      -0.23889714      -0.92672080      -0.06264105      -0.01183775       0.06103792       0.06599897       0.00806769       0.04312053       0.08861125      -0.00117354       0.02125353      -0.01403372       0.23301409      -0.25800277      -0.91911940      -3.94634125
H        3.24826384      -2.05890465      -3.84118152      -1.41122925       0.28961119      -0.95178676      -0.04051910       0.07816485      -0.08946815      -0.07780371      -0.12041595       0.04421444       0.14667314      -0.03004055       0.00979480       0.06431915      -1.43017219       0.30288374      -0.94519056      -3.84694017
H        1.54286456       2.50858545      -3.26452446      -0.22797352      -0.55013704      -0.77368093      -0.06153957       0.02814512      -0.02274747      -0.01719454       0.00273712       0.03869699      -0.04111726      -0.04277546      -0.04024611       0.15505663      -0.28279763      -0.56102905      -0.79621803      -3.91662885
H        0.94108284       3.84702516      -2.33631778       0.37338218      -1.59458137       0.50832623      -0.04645838       0.06311640       0.01176792       0.00142349      -0.03034512       0.18078668      -0.05308662       0.01517604      -0.06919768       0.03774762       0.37084043      -1.58210517       0.55129624      -3.91100773
H       -3.27782965      -3.22937346       1.33812523       0.15957354       1.23473406      -1.04075289      -0.06075605       0.13871090       0.13403494      -0.03456708       0.18973952       0.14867580      -0.06427937       0.04825816       0.04480513      -0.02926699       0.23204657       1.27316238      -0.99428686      -3.86161993
H       -2.16800880      -3.00106573      -0.05787924      -0.38402194       0.65682685      -0.27451512      -0.06397080       0.03195164       0.03338264      -0.02019149       0.02790924       0.01675740       0.00641385       0.05507558       0.05901060       0.12480298      -0.35240926       0.67234800      -0.26494811      -3.99019868
H       -1.77415693      -2.21562696       2.80757356      -0.14695565       0.54438025       0.67596537      -0.05127681       0.00513292      -0.03181853      -0.02490345       0.02296615      -0.01613838       0.03844918      -0.06263051       0.03695383       0.10004389      -0.08850311       0.52859173       0.68505885      -3.94443748
H       -1.15100980      -3.60238028       2.07357097       0.11557172      -0.33203045      -0.03296214      -0.05815199       0.09153010       0.05674861      -0.01627896      -0.05039869       0.02872905       0.01256754       0.04909508      -0.03810017       0.02621965       0.12420287      -0.25959659      -0.06130373      -3.81433182
H        2.29636431       2.89664507      -0.42852449      -1.11392593      -0.20330089       1.52775764      -0.05636902      -0.02264905      -0.02633867       0.03969127      -0.01853407       0.04751187       0.05152584      -0.02170218      -0.00652170       0.14342673      -1.12583258      -0.25114071       1.54617461      -3.84399124
H        3.14188147       2.96565890      -1.71835446       0.13655236      -0.90849221      -0.59019083      -0.04804599      -0.00104148      -0.08855541       0.08771106       0.04187880       0.04052527      -0.04762335       0.03073802      -0.02289878       0.00522253       0.12811071      -0.96672351      -0.62695773      -3.69159291
H        0.81807840      -2.29410839       1.84047055       0.65429085      -1.12271821       1.44110215      -0.06076545       0.11824983      -0.05730308       0.04888224      -0.03028813       0.00480421      -0.00319344       0.02250266      -0.03278088      -0.02261140       0.66100084      -1.08073605       1.44915408      -3.77704696
H        0.03854936      -2.22587562       0.47467107       0.23333739      -0.09610917      -2.53002262      -0.06612527      -0.00183927      -0.01045613      -0.00244962       0.03497330       0.07377907       0.01961568      -0.02461737       0.02889420       0.07174697       0.23899035      -0.06359431      -2.54560162      -3.71360747
H        3.50614691       0.96321142      -0.65432155       0.33459049      -0.80634862       0.82132506      -0.05034120       0.05519369      -0.00830651       0.05481054      -0.00068825       0.00959542       0.03020320       0.03197739       0.00599486      -0.01123164       0.29810244      -0.81092912       0.85169039      -3.70300888
H       -0.49689013      -0.07392350       0.85363173      -3.42577863       2.66937375      -2.13636303      -0.04806486      -0.08034263      -0.02146899       0.19412739       0.02112119      -0.01693542      -0.04614215       0.03561193       0.03900171       0.00533665      -3.29520488       2.47698335      -2.12722082      -3.63095942
46
Properties=species:S:1:pos:R:3:original_dataset_forces:R:3:LES_q:R:1:LES_BEC:R:9:forces:R:3:energies:R:1 original_dataset_energy=-199.57691955566406 energy=-199.5494766967037 stress="-inf -inf -inf -inf -inf inf -inf inf inf" pbc="F F F"
O        2.75131917      -1.25974679       0.27640778      -0.39140537      -0.32853404       0.93963724       0.25060329       0.63697364      -0.12542939       0.08343585      -0.07586050       0.67136890      -0.54957907      -0.19800946      -0.38769248       1.28029294      -0.48753687      -0.36858656       1.04407476      -4.70447208
O       -2.60103846      -0.33513597       3.36031079      -0.97016472      -0.38260916      -0.14624880       0.38269693       1.64641766       0.39061109      -0.44964550       0.22423995       0.91184908      -0.25737362      -0.12851064      -0.17453065       0.54087512      -0.96404537      -0.40505626      -0.18951915      -4.42448810
O       -0.18914539      -1.56812453      -0.01199353       0.32902360      -0.99670190      -1.08953059       0.22407164       0.58493590       0.05238783      -0.00638306      -0.01688314       1.22885178       0.05364797      -0.01328989       0.30107731       0.93842070       0.27748783      -1.01360822      -1.09156484      -4.73123966
O       -3.31898665       1.04760861      -1.88841677      -0.75862968       0.51120400      -0.77386928       0.26355487       0.90070725      -0.05186420       0.37687314       0.02547951       0.30644869       0.09518468       0.25218876       0.02140681       1.28113519      -0.75228988       0.50330797      -0.71979905      -4.70252623
O       -1.21946967       1.34363055       2.97846889       1.09558558       1.16190541      -0.76985765       0.35016972       0.79060051       0.07765710       0.01175875       0.23088195       1.47290660       0.00640224      -0.01653635      -0.12487384       0.59211612       1.11677579       1.08449217      -0.78608486      -4.60531048
C        2.63792920      -1.94110537       1.31373119       1.80979085      -0.24926691      -0.07099912      -0.06285755      -1.42468050       0.34346416       0.39587840       0.18089985      -0.55037451       0.62227126       0.65067387       0.46208448      -1.28103710       2.08156244      -0.28205462      -0.26678677      -5.79789158
C       -1.48729336       0.14725906       3.14849663      -0.79150736      -0.88788366       0.84028029      -0.02624182      -1.77860139      -0.32971985       0.42778227      -0.32844966      -1.86765057       0.17853585       0.18759195       0.24675200       0.02004213      -0.77320629      -0.81208914       0.74263710      -5.74867151
C       -0.00367856      -0.58253551       0.68322235      -0.34610242      -0.45542035       0.94307077      -0.09609329      -0.38999732       0.20907722      -0.41149006       0.33271125      -1.82616569      -0.00066970      -0.41088061      -0.13287236      -0.93468293      -0.21815682      -0.36544615       0.89647018      -5.67344664
C       -2.68972111       1.14270234      -0.86250997       0.00531930      -1.23950815       1.36758733      -0.07837866      -1.20891773       0.17572002      -0.12090771       0.05654934      -0.07582628      -0.21652349      -0.03435122      -0.19019340      -1.88577566       0.15977031      -1.30096182       1.28417086      -5.59490007
N       -3.18442893       1.30465889       0.39626348       1.43107057       0.26475081      -2.27784729       0.09504874       0.31709808       0.05259382      -0.24670956       0.04075947       0.08890680       0.07786987      -0.20468110       0.12119016       0.99166463       1.10154398       0.41424732      -2.29967465      -4.94100859
N        1.58858347      -1.92385721       2.13208175      -1.06740248       2.80933857      -2.12155914       0.07781133       1.00147845      -0.24779552      -0.39486117      -0.34703930       0.50560061      -0.28097317      -0.45966579      -0.09973702       0.64828242      -1.30778398       2.81287959      -2.04839129      -4.47924892
N       -0.47347260       0.60434097       0.30289054      -0.04507233       2.03910899      -0.00292558       0.09111399       0.34812784      -0.28326016       0.19156605      -0.23676881       1.00149386      -0.12989117       0.20146959      -0.22458715       0.65153558      -0.07884491       1.91621183       0.15732063      -4.66891037
C        3.81914210      -2.78672171       1.83162594       0.65555847       0.27563107      -2.99614525       0.08402499      -0.03611774      -0.04190855      -0.00759698      -0.00002949      -0.11713308      -0.03307780      -0.09879757       0.00628498      -0.12522954       0.62045990       0.27974071      -3.03856128      -4.45192306
C       -4.53159761       1.23066974       0.76006621      -0.51321185      -2.20380807       3.17579246       0.09049415      -0.20012165      -0.06940117       0.08326205      -0.07217357      -0.10971432       0.00930457       0.06348071      -0.00708291      -0.19154815      -0.39672501      -2.24660045       3.25994094      -4.90143379
C        1.02138424       1.96186066      -1.94840908      -1.64796114       2.29455018      -1.77085841       0.09343825      -0.17567483       0.13811527      -0.04513446       0.05655582       0.02475570      -0.05140262       0.03954876      -0.03128844      -0.23852917      -1.68105135       2.21149154      -1.76049486      -4.54639030
C        1.28430796       1.19331908      -3.30158854      -1.41019416       1.58591080      -0.24102160       0.09825595      -0.09422741      -0.02125810      -0.05459921       0.04428637      -0.16603066      -0.15052655      -0.08611346      -0.09603283      -0.16454350      -1.25485319       1.56452213      -0.13679711      -4.62246834
C       -0.35784262      -0.88494974       3.19085169       0.11441379      -1.35919607      -0.45124701       0.08042910       0.09562139      -0.15147050       0.08018331      -0.17325522       0.07092042       0.03458148       0.04547224      -0.03308387      -0.13747156       0.14102427      -1.44754099      -0.43546823      -4.52867704
C       -0.49747366       2.10366440      -1.56913066       0.35508415       0.14361532      -0.13401309       0.10339720      -0.15749049      -0.11428906       0.08804140       0.00047198      -0.07563004       0.01261785       0.05165444      -0.02163650      -0.04889753       0.31406239       0.26965651      -0.16689434      -4.73241703
C        0.81233466      -0.22043723      -3.34530306      -0.22356695       0.25258911      -1.27419770       0.02220808      -0.31449509       0.08250964       0.02196889       0.02196222      -0.34795968       0.22687006      -0.19665152       0.17340071      -0.26978165      -0.24617696       0.37134378      -1.27461813      -5.09581865
C        0.66265500      -0.74416924       2.06696320      -1.61489022      -3.07250595      -0.55986637      -0.02502652      -0.39165364       0.15318961       0.03882111       0.17044116      -0.38236316       0.02806164       0.06589756       0.14001762      -0.39300976      -1.62541358      -2.93636775      -0.48332116      -5.09592794
C       -1.17743754       0.89826816      -0.97150064       1.43550014      -1.49318624       0.53905189      -0.01339297       0.00529425      -0.02954020      -0.10834935      -0.08120820      -0.27393421       0.04555770      -0.13719302       0.10721024      -0.44594158       1.39547753      -1.66665370       0.30997687      -5.08023659
N        1.49939895      -0.93412650      -2.28079796       0.52279794      -1.48897767       1.63408923      -0.05086756       0.24917216      -0.00461952       0.14718191       0.15540488       0.25289045      -0.29309347       0.01271654      -0.04140648       0.47182571       0.56384979      -1.33506111       1.55207291      -3.68059110
H       -2.53555393       1.09535575       1.10252333       0.77580023       0.01803846       1.33580899      -0.15405779      -0.03031564      -0.06399650      -0.16683543      -0.02674014      -0.16330634       0.00462135      -0.12196503       0.03916791      -0.36251357       0.91499926      -0.07619696       1.36837110      -3.61884026
H        1.42101979      -2.58491087       2.82439041       0.04860816      -1.10939145       1.18303168      -0.19637597      -0.14410200       0.00740136      -0.14539987      -0.02994513      -0.23190098       0.19841263      -0.02440932       0.04446061      -0.23647263       0.07988261      -1.11270745       1.19178632      -3.60213080
H       -0.33018374       1.44286013       0.88225085      -0.10291792      -1.01527095       0.18686263      -0.19092922      -0.15429544      -0.04572393       0.07535304      -0.01297400      -0.23609514      -0.07798023       0.09200317      -0.10230103      -0.32671280      -0.13873151      -0.96734957       0.19285824      -3.59183621
H        3.60650516      -3.81539917       1.80215192      -0.95302010      -1.43308079       1.04793048      -0.05227581      -0.07483578       0.05258759      -0.03970755      -0.03928305       0.12857003      -0.03794136       0.08783400      -0.05599811       0.02051602      -0.96232497      -1.46680614       1.09516791      -3.88768985
H        4.28944683      -2.43714738       2.71973705      -0.08404420       0.16221549       0.76415682      -0.05647991       0.08943833      -0.04161007       0.10084839      -0.02624474      -0.00392244       0.00971350       0.05770996       0.01245520       0.06338840      -0.01480137       0.12663479       0.77963949      -4.09291078
H        4.59485817      -2.86764336       1.03432703      -0.36037406       0.98636502       0.44890773      -0.03331507       0.21886651      -0.11597298       0.01090096       0.03004060      -0.03614607       0.04388654      -0.10597984       0.04341237       0.02014912      -0.36533566       1.06186345       0.44423357      -3.79690030
H       -4.60299206       1.11116743       1.88055182       0.45840818       0.04402271      -1.13562739      -0.03897868      -0.02932485       0.03504341      -0.07328819       0.05713173      -0.03114535      -0.00376751      -0.22315462       0.04151138       0.10839585       0.44221710       0.04239736      -1.16260592      -3.82203881
H       -5.14535427       2.01121473       0.57108766      -1.31046593       3.03316927      -1.07690406      -0.06405660       0.05159578      -0.03422032      -0.00406851      -0.22803996       0.06770566       0.01774285       0.03799101      -0.02491726      -0.02863995      -1.31651334       2.99221110      -1.07582412      -3.87891957
H       -5.06668377       0.39413422       0.38012141      -0.04833621      -1.05370963      -0.65497667      -0.05077332      -0.02580060       0.05091289       0.01997491       0.22449125      -0.01767269      -0.00277936       0.12078430       0.01199801      -0.02991911      -0.04790190      -1.00121930      -0.63347170      -3.88535622
H        1.33223653       3.05722857      -2.18897080      -0.06388666      -1.99280548       0.74096233      -0.05344218       0.08712632       0.05338220      -0.04540711       0.05038641       0.09878176       0.03420488      -0.01191466       0.05707457      -0.02630698      -0.08395813      -2.02686877       0.80020991      -3.86314567
H        1.55264950       1.57728553      -1.10761333       0.67344230      -0.18690948       0.45596790      -0.06483724       0.04596816       0.01312481      -0.02423227      -0.04905726      -0.03549957      -0.01689613       0.06185252       0.03084798       0.03413411       0.77057665      -0.21224038       0.38219877      -4.10654512
H        2.34956884       1.19767952      -3.46175218       0.38406324       0.32886818      -0.52108693      -0.06160105       0.12430928       0.01578564      -0.08201221       0.00533810       0.02233427       0.02335277      -0.02360001       0.04545872       0.03064346       0.36621396       0.34316071      -0.51585809      -3.89644611
H        0.69045806       1.69684339      -4.14634705       1.30999720      -0.31241894       1.22371554      -0.05632335       0.00498006      -0.02110716       0.04045045      -0.03823199       0.05715645       0.02915278       0.03158716      -0.03956232       0.12987931       1.29259798      -0.32559104       1.18539380      -3.87175620
H        0.16943467      -0.78847736       4.12470818       0.29494682       0.27121967       0.41462329      -0.05379108      -0.00403977       0.01289400       0.03061377       0.00459573       0.00938536      -0.07551272       0.05212161      -0.03732459       0.23113898       0.26395646       0.26780260       0.41282482      -3.89507678
H       -0.73630619      -1.93565774       3.19180155      -0.15930527       0.94509387      -0.18886474      -0.04067544      -0.00469017       0.05213289      -0.07708455       0.02679157       0.17458946      -0.07978873      -0.00909401      -0.06414227       0.08222014      -0.20291516       0.99072847      -0.14763216      -3.89783871
H       -0.73382384       2.90691590      -0.86635357       0.77624416       0.21055150       0.03012998      -0.05560227       0.06034947      -0.02288320      -0.03561728      -0.01819770       0.06596023       0.08180972      -0.04423184       0.05279113       0.03466866       0.82643913       0.19235980      -0.02399279      -3.84613594
H       -1.07154000       2.38307643      -2.42539811      -0.22993164       0.11985827      -0.87003839      -0.05538196       0.08460010      -0.02716073       0.03816101      -0.01121202       0.02073353      -0.00055722      -0.00392445      -0.01352723       0.05825138      -0.27512227       0.12085012      -0.83692621      -3.89472350
H        0.99953723      -0.69412255      -4.32705498       0.15177771       0.23088208       0.64031762      -0.06463343      -0.00402822      -0.00010023      -0.02494547      -0.00338731       0.04411006       0.10101234       0.06098019       0.03647577       0.02213419       0.10301532       0.19871481       0.64273388      -3.89149528
H       -0.25928336      -0.19468969      -3.21049786      -0.07404969      -0.59965378       0.19111164      -0.06359787       0.08285306      -0.00994275      -0.03505330      -0.01799284      -0.02505412       0.05437137       0.02283685      -0.00032571      -0.06119721      -0.13435999      -0.58575564       0.16721707      -3.82132718
H        1.23870087       0.03228372       2.31699657       2.05967021       3.33975983       0.40131027      -0.06338139       0.04566353       0.01524708       0.13202768       0.08760599       0.01678736       0.09909877       0.00510885      -0.01931260      -0.01704011       2.07529692       3.36595686       0.39799124      -3.72147192
H       -1.00096178       0.00010145      -1.61600399      -0.81631428       0.84638876       0.84996688      -0.03464300       0.01539646       0.00185698      -0.00398675       0.00354410       0.02699585       0.09285950       0.06265645       0.03882435       0.11976548      -0.85613132       0.96413677       0.91289969      -3.75275296
H        0.91947329      -1.02109635      -1.44211674      -0.91440862      -0.21194957       0.65090507      -0.11856442      -0.37384604      -0.02121518       0.25873623      -0.05870017      -0.19336725       0.06811989       0.30598696      -0.00656376      -0.57912027      -0.91394727      -0.22245241       0.66805953      -3.46514447
H        1.67541456      -1.94514418      -2.46449828       0.47034797       1.18459380       0.05430201      -0.18481487      -0.17873196      -0.01105421      -0.01318272      -0.06035347      -0.27142742       0.01939157       0.03447646      -0.06041117      -0.26093524       0.46100855       1.10235786       0.08084448      -3.39621282
H        2.29791546      -0.41893041      -1.83577156      -0.26561034      -0.98687547      -0.93275213      -0.18047872      -0.29158598      -0.10015114      -0.03732129      -0.07854157      -0.23078332      -0.01032173      -0.05166953      -0.04449836      -0.32616965      -0.27009107      -1.01985380      -0.87480738      -3.40981055
46
Properties=species:S:1:pos:R:3:original_dataset_forces:R:3:LES_q:R:1:LES_BEC:R:9:forces:R:3:energies:R:1 original_dataset_energy=-199.51962280273438 energy=-199.56430557773368 stress="inf -inf inf -inf inf -inf inf -inf inf" pbc="F F F"
O       -0.87883413      -1.78360868       3.18975139      -1.08504176      -2.14729452      -1.55338776       0.20110822       0.72344113       0.29085488      -0.07011624       0.44590797       1.05953717      -0.07193327       0.13277283       0.20694261       0.86179064      -1.06514199      -2.14969518      -1.40147640      -4.89497954
O        3.14713955       1.77416790       0.32716000       1.15169585       0.35240677      -1.89355397       0.31122100       0.63001393      -0.02887510      -0.05747599       0.11571808       0.80376458      -0.26519371      -0.47515616      -0.24289322       1.63313805       1.15427677       0.42279576      -1.98594593      -4.70808622
O       -0.68080103       0.73224097       0.82712561       0.51295435      -0.46990377       0.92218560       0.19169816       1.16482267      -0.22354882      -0.26362383      -0.20939039       0.56700879       0.19334290       0.07037529       0.06598051       0.66436514       0.53956382      -0.33826248       0.86894314      -4.73404504
O        0.46612006       1.34919298      -4.17698908       0.99843854      -0.13724288       3.77944660       0.29786971       0.62257320       0.20907413       0.24065452       0.17934765       0.54976569      -0.17447480       0.33047021      -0.04450623       1.51265564       1.09562740      -0.07752095       3.79927476      -4.66143387
O        2.15701914       2.29916859       2.23214340       0.79888588      -1.27460241       0.48660213       0.39829317       0.80554287      -0.21031837      -0.52447586      -0.18066118       1.18583739       0.39689674      -0.30951892       0.16670122       1.11596307       0.80690468      -1.32872428       0.42718654      -4.45435603
C       -0.41691017      -0.75706995       3.58666015       1.51683152       4.18932343       2.13924432      -0.06633669      -1.13474858      -0.73280941       0.85888702      -0.78267505      -1.34041459       0.12257957       0.36939365      -0.25266418      -0.76499273       1.42356428       4.10716239       2.12533730      -5.81540844
C        2.79711580       1.51304400       1.47496748      -2.29800749       0.43005624       0.69963932      -0.03186775      -0.63833616       0.22540791       0.70333614       0.20681213      -1.58493807      -0.17130130       0.81498185      -0.06956912      -1.69957336      -2.27054699       0.38274292       0.90075530      -5.49491044
C        0.41052556       0.16028112       0.65580958      -0.88608593       0.70156801      -2.31416583      -0.11491331      -1.17972139       0.49087140       0.29893005       0.50536649      -0.46296674      -0.21233609       0.23858093      -0.14773300      -1.40607575      -0.85868142       0.77800422      -2.40724448      -5.39119147
C        0.83674526       1.29713666      -2.95432949      -0.13576292      -0.35534182      -1.55039144      -0.07873588      -1.00721087      -0.56905439      -0.42922492      -0.58767112      -0.51325488       0.10855423      -0.43727753       0.04080492      -1.67326600      -0.26983065      -0.55404649      -1.58844955      -5.51143538
N        1.87275350       1.97198844      -2.42894197       0.56316489       0.29016826       0.94965005       0.08374897       0.74299755       0.40352415       0.33158150       0.45404881       0.47335972       0.07748654       0.13759170      -0.08659410       0.69129707       0.65588993       0.37980051       1.04281841      -4.80843450
N        0.67729867      -0.10729165       3.10049582       0.52814853      -0.41483483      -1.46178961       0.10478983       0.81885928       0.43850620      -0.48699617       0.31958452       0.55169124      -0.07935430      -0.37860212      -0.07221229       0.54182072       0.56359668      -0.32211986      -1.42468847      -4.61880495
N        0.74570382      -0.06127587      -0.66572273       1.49466062       0.08276515      -0.25528026       0.12230340       0.60746105      -0.07360846       0.02658314      -0.06851442       0.36819613      -0.04857108      -0.22656611       0.02857483       1.19429604       1.39013630      -0.03065836      -0.13107404      -4.48300278
C       -1.01498115       0.03580885       4.78295135       0.78780317      -2.21622276       0.19785911       0.09747817      -0.01077511      -0.01369657      -0.19056431      -0.01894151       0.03002240      -0.00839597      -0.11656570       0.13153079      -0.05621110       0.76134521      -2.27296734       0.18834961      -4.39576796
C        2.59199524       2.96213579      -3.18928123       2.27984858       0.34989658       0.50002193       0.08518454      -0.14776937      -0.02798480      -0.01467862      -0.20577154      -0.37458247       0.20453852       0.14173113       0.16789373      -0.28605689       2.31488781       0.31226490       0.50480960      -4.73667366
C       -2.29114342      -0.70818686      -2.36721683       0.71663088      -0.17788696       2.45568419       0.08643522      -0.16627882       0.00089592       0.13579124      -0.03528372      -0.15574594       0.00957797       0.01598701      -0.01602519      -0.09683498       0.69077348      -0.07717455       2.44948931      -4.86451105
C       -2.79938126      -1.95315528      -1.60304737      -1.33469665       0.93360889       1.34725189       0.10152820      -0.07249488       0.03967320      -0.00916646       0.05551594      -0.16591016       0.14524108      -0.07505547       0.06089218      -0.16696229      -1.48663651       0.83737908       1.37699897      -4.68428157
C        2.77122736      -0.02514177       1.76638222       0.33200416       0.39038271      -0.34079245       0.07753012       0.01880354      -0.00575918       0.11785387      -0.00740359       0.25880135      -0.06561876       0.01175498      -0.01016868      -0.04680398       0.30514528       0.46707480      -0.31681346      -4.52061237
C       -0.76414436      -0.67414820      -2.56965160       0.10583799       0.54001188       0.88195878       0.09885112      -0.17079718       0.04087064      -0.04111725       0.07001154      -0.03918190      -0.03002697       0.00324086      -0.07363558      -0.26313739       0.12692030       0.53254312       1.02514423      -4.93752518
C       -2.05193853      -2.29062414      -0.29980958       0.09455218      -0.17766760      -1.44580138       0.02580966      -0.27438211       0.06967143       0.03733954       0.13881532      -0.31302537      -0.25536419       0.00903183      -0.25319860      -0.39491375       0.22885532      -0.17869261      -1.50047480      -4.75052995
C        1.29170942      -0.43054301       1.79274082      -0.67658460      -0.92566568       0.78353113      -0.02136554      -0.47989528       0.02542907       0.06268669      -0.04596687      -0.13358303      -0.12566636       0.14956207      -0.07245329      -0.47001544      -0.63550414      -1.05454549       0.57978839      -5.04977939
C        0.00598294       0.46106362      -1.90356016       0.56104451      -0.16752718       0.14585423       0.00395311      -0.16032032       0.05245687      -0.07932795       0.05634721      -0.25744647      -0.04383809      -0.25909288      -0.00146697      -0.50203955       0.47128131      -0.02856579       0.32259852      -4.79846028
N       -2.36748123      -1.22466230       0.70438188      -1.34689152       0.84942210      -1.34853613      -0.04119425       0.44124839       0.11233657      -0.00243121       0.06800847       0.34106291       0.14607879       0.11697596       0.09023683       0.41543664      -1.55525364       0.59254209      -1.36519590      -3.39651868
H        2.25298977       1.97046804      -1.42903793      -1.28552055      -0.75081223      -1.20166433      -0.14679737      -0.22301514       0.04087288      -0.25358249      -0.02437722      -0.17614784       0.02131393      -0.11213107       0.09221996      -0.58411736      -1.36945245      -0.81440804      -1.34877224      -3.80708348
H        1.00750434       0.80778557       3.41884470      -0.53624040      -0.20919214       0.00908643      -0.18441883      -0.16449027      -0.09471280       0.07406210      -0.16463058      -0.35985018       0.02404409      -0.06741124       0.03659611      -0.27093130      -0.50072486      -0.26541975      -0.00332908      -3.63966416
H        1.70160615      -0.42388847      -0.84247220      -1.08153582       0.54106927       0.17134699      -0.19242349      -0.23778589      -0.00152017      -0.01608442       0.00960196      -0.21086203      -0.03316322      -0.02450329      -0.01768436      -0.16052814      -1.03023629       0.59452632       0.14944398      -3.64779729
H       -0.85978293       1.06377244       4.67288256       0.26475850       1.47718167      -0.16808942      -0.05363547      -0.01634852       0.01236000      -0.02611646       0.02058371       0.08262073       0.04068284       0.00486014       0.00866827       0.00789003       0.24319193       1.47858503      -0.17339518      -3.99822922
H       -2.05587482      -0.18015742       4.82434416      -0.82125711      -0.13889039       0.09209681      -0.04896465       0.09391150       0.00656698      -0.09662834       0.00634828      -0.01214965       0.01871933      -0.03228997       0.00089321       0.05304695      -0.81447922      -0.10866550       0.06689263      -3.99014090
H       -0.56341267      -0.30146217       5.73975420      -0.20100090       0.14613925      -0.65356338      -0.04587802       0.00002933      -0.01094857       0.02868199      -0.00176892      -0.00455024      -0.07566281       0.03129293      -0.02522975       0.16902203      -0.17863075       0.14011913      -0.65528754      -3.99346890
H        3.56033134       2.57617807      -3.62762189      -1.06569159       0.15583676       0.45259392      -0.05337467       0.04362200      -0.01159869      -0.02749038      -0.01030604       0.00537171      -0.00413968      -0.02662400       0.00442773      -0.01192415      -1.05228013       0.13787305       0.42606207      -3.95561431
H        2.03380585       3.38200712      -3.98068714      -0.81577098       0.22589251      -0.74355841      -0.04601770      -0.05865209      -0.09846658       0.10162385      -0.00685582       0.00224354      -0.03514175      -0.00910041      -0.07818326       0.07545713      -0.83063128       0.24361355      -0.74349564      -4.01891286
H        2.88880014       3.77390862      -2.48745346      -0.25541273      -0.54287046      -0.51342696      -0.05336864       0.00341735       0.04624027       0.00346368       0.10729486       0.12198513      -0.02120002       0.01562582       0.05598183      -0.03883283      -0.26875866      -0.51107220      -0.52451242      -3.93342461
H       -2.62231636       0.14385805      -1.69624758       0.48961216      -0.52753109      -1.19320059      -0.05608233       0.06160542       0.01281310       0.04324033      -0.09495351       0.03073013      -0.03393169      -0.03028756       0.06118328      -0.02807762       0.46409651      -0.42455576      -1.21430411      -3.88952535
H       -2.74921179      -0.63050807      -3.31141376      -0.84831816       0.21230915      -0.90244591      -0.07132463       0.07653590       0.01057960       0.05522445       0.00143874       0.00701634      -0.05233657       0.02895983      -0.05226342       0.08204883      -0.82286497       0.17213984      -0.87028244      -3.95721583
H       -3.91170979      -1.86269975      -1.38223886       1.15678954       0.11266720      -0.23062417      -0.04650079       0.12923760       0.00769109      -0.02896453       0.02963332       0.04120093      -0.03226545      -0.01094347      -0.01363830       0.06477029       1.17589295       0.10765898      -0.18782854      -3.88232052
H       -2.73202276      -2.87031174      -2.09041476       0.22216104      -1.30693710      -1.65630317      -0.06702553       0.03615053       0.06121824       0.05477850      -0.04145537       0.07910783       0.00157175       0.00404664       0.01615981       0.02030546       0.22728218      -1.22387061      -1.70961761      -3.79895588
H        3.26757193      -0.32914370       2.69885659      -0.35074848       0.07829984      -0.28897491      -0.05336707       0.09617067      -0.02002692       0.08927793      -0.05646462       0.02983930      -0.07522078       0.14295958      -0.04844011       0.12571943      -0.34680266       0.14690231      -0.27037135      -4.04062199
H        3.27693415      -0.50456363       0.90575272      -0.24366491       0.15169634       0.63221866      -0.05009266       0.01724637      -0.02176054      -0.07506121       0.00726573       0.04445767       0.05634306      -0.04780556       0.07859760       0.06379053      -0.28773728       0.10559410       0.61794953      -3.93879295
H       -0.20462814      -1.51612341      -2.29322267      -0.01027387      -1.83083534       1.39714587      -0.05576384       0.04818243      -0.08891363      -0.01176810      -0.02249108       0.08714093       0.05934801       0.10777801       0.05021161       0.15757538       0.06625257      -1.80865633       1.31678864      -3.58379016
H       -0.45196974      -0.77558333      -3.55538177      -0.31482491       0.93091923      -2.32332873      -0.04545284       0.03675018      -0.02906185      -0.18815735       0.02797269      -0.00415293       0.11106969      -0.01049937       0.12344943       0.26942610      -0.24751277       0.84033530      -2.43525827      -3.68602479
H       -2.40500259      -3.25706339       0.03474677      -0.05357252       0.04322198       0.45115495      -0.06646061       0.01009102       0.03028771      -0.00391460       0.03887410       0.11487741      -0.06319459      -0.01389457      -0.07824418       0.00770933      -0.06953164       0.07613918       0.42696581      -3.91159861
H       -1.00601387      -2.44081068      -0.66837478      -0.53529847       0.77447885       1.47493315      -0.06475038       0.02832080      -0.07730696      -0.04354169      -0.05401160      -0.04677746       0.00776095      -0.05405031      -0.01876507      -0.01283981      -0.49269290       0.67760064       1.53331834      -3.89231198
H        1.21938229      -1.53400695       1.68731284      -0.05738451       0.58746314      -0.08074522      -0.05534498       0.08615311       0.00226589       0.08863672       0.08118034       0.06856779       0.14073797       0.04484859      -0.00075142       0.10788709      -0.04369778       0.61176589      -0.03373926      -3.83778466
H       -0.71076572       1.19694352      -1.60952210      -0.28399554       0.42506301       0.78108048      -0.05726528       0.01623043      -0.02351342      -0.10904335      -0.07378457      -0.00643134      -0.06737292      -0.03138553      -0.01219702      -0.01069523      -0.36495290       0.37001877       0.87438053      -3.74843705
H       -2.10013556      -1.36645746       1.68524623       0.60669380      -0.31716815      -0.07033063      -0.13577379      -0.33175298       0.03421004      -0.24526586       0.05854037      -0.16433944       0.11583954      -0.23357544       0.10364208      -0.51717523       0.64791618      -0.32669136       0.00239788      -3.70544126
H       -3.43485546      -1.18085957       0.66409844       1.94166148       0.33438200       0.21996893      -0.19759318      -0.39424793      -0.05473086      -0.04878764      -0.00243248      -0.16049673       0.02738375       0.05663583       0.08085221      -0.18022373       1.97441397       0.39281653       0.19939109      -3.34506839
H       -1.90694332      -0.28180042       0.36023009      -0.59541398      -1.21435583       1.21491051      -0.10846736      -0.49039531      -0.24646206      -0.00902802      -0.30840702      -0.41739926       0.01659310       0.00287899       0.01607660      -0.19318295      -0.46523301      -1.01168546       1.06647212      -3.67947573
42
Properties=species:S:1:pos:R:3:original_dataset_forces:R:3:LES_q:R:1:LES_BEC:R:9:forces:R:3:energies:R:1 original_dataset_energy=-190.06153869628906 energy=-190.16211605176133 stress="inf inf -inf inf -inf inf -inf inf inf" pbc="F F F"
O       -2.55418539      -0.58579201      -2.68084860       1.48414564       0.83739609      -0.90477443       0.28371882       0.89899569       0.30216345       0.03892162       0.02496849       0.84660943      -0.51985901       0.15539298      -0.37182998       0.80203211       1.47533427       0.79886524      -0.91351594      -4.55367524
O        2.32608652      -3.39386821       0.45985854      -0.32949999       0.11077918       0.78958148       0.37625781       1.09206233      -0.43566327       0.43587635      -0.26957206       1.01051903      -0.43748028       0.31133422      -0.53074149       0.97609165      -0.35172521       0.07348450       0.79016330      -4.45732648
O        0.12285331       3.94131684       0.48029852       1.49517441       2.84786630      -0.13414040       0.26344115       0.54254206       0.17532389      -0.19432650       0.33881405       1.28711842      -0.08137947      -0.11855930       0.28270685       0.56572651       1.35572997       2.60690282      -0.19078322      -4.60973874
O       -0.44913810      -0.20929980       0.88981020       0.34724414      -1.19218636      -0.93889540       0.18622443       0.33450430      -0.15243035      -0.05021174      -0.13831886       0.86570233       0.10837414      -0.06964688      -0.17084276       1.14632845       0.21830267      -0.93833127      -0.94860605      -4.87349328
O        2.01751184      -2.08502507      -1.28354001       0.13065642       1.41527605      -0.65345514       0.31227750       1.00679603       0.26119032      -0.17806842       0.15106689       0.94472955      -0.33312288      -0.09816195      -0.31438792       1.11402557      -0.06803310       1.32839020      -0.58986050      -4.70617349
C       -2.90042877      -1.50231433      -1.95615172      -0.72529596       2.93977523      -0.77378166      -0.05689348      -1.31078587      -0.13430244      -0.45379784       0.14829632      -0.87471958       0.84382692      -0.48646490       0.69712707      -0.99793710      -0.69086204       2.95658055      -0.79990809      -5.92388180
C        1.59742677      -2.75622773      -0.30558473       0.32359934      -0.69285446       0.07954355      -0.03194202      -1.67117765       0.44919269      -0.01899770       0.02327412      -0.74782151       0.96047610      -0.13197544       1.01927708      -1.36508828       0.38730722      -0.51062890      -0.04126655      -5.69182198
C       -0.24008936       2.81861472       0.33633113      -0.76500142      -1.79356647       0.80407083      -0.08865313      -0.59827089      -0.53446050       0.65366323      -0.51150651      -1.49154217       0.01194290       0.61219503      -0.06749009      -0.97622591      -0.75076418      -1.58476243       0.82164651      -5.71066106
C       -0.46694824      -0.36427635      -0.33618695       0.21039449       0.87955958      -0.05714653      -0.08866920      -0.10935706      -0.12236475       0.06921877      -0.04140184      -1.27529538       0.28752141       0.13138085       0.37910788      -1.66000339       0.23228122       0.74748520       0.00002552      -5.59678262
C        2.46337748       1.44763803       1.68320489       0.42943475      -1.67459464      -2.29696488       0.01703814      -0.11536783       0.07112880      -0.08220019       0.08706455      -0.23228553       0.09496761       0.12254282      -0.03402203      -0.06946875       0.49463694      -1.73654733      -2.35126348      -5.45761801
C        2.47182608       1.06364465       0.36146259      -0.86298782       0.73393255       0.82366180      -0.02860347       0.00788537       0.13656098       0.04826420       0.14568111      -0.15502348      -0.08043271      -0.21079594      -0.04429984      -0.39419148      -0.98589829       0.81699881       0.74612817      -5.60343395
C        3.40747690      -0.51160765       1.47104979      -0.15451996      -0.37792283      -0.55504924      -0.05884949      -0.10015278      -0.04378179      -0.01979112      -0.10643106      -0.16176125      -0.20269826      -0.02021892      -0.13533532      -0.65409493      -0.15625626      -0.44526978      -0.58917885      -5.60576299
N        3.03359365       0.41573912       2.39474583       0.19377887      -0.20023316      -3.46573472      -0.04789835       0.04131344      -0.04031985       0.03659470       0.12055992       0.18194291       0.20272860       0.07606868       0.09403082       0.47576108       0.20556864      -0.20806923      -3.47067636      -4.99898699
N       -1.06288552       2.24197435       1.23578668      -1.34704268      -1.56559539      -0.67004013       0.12967268       0.47669997       0.20169785      -0.39829894       0.06469844       0.75437786       0.09057851      -0.42673712      -0.00916193       0.77636969      -1.28832947      -1.52287790      -0.59186562      -4.59811335
N       -0.31735569       0.69536215      -1.20064688       0.55131221      -0.46377119       2.41186309       0.11224851       0.28472010       0.11989104      -0.00912289       0.14332543       0.94577872      -0.31281231      -0.03670461      -0.09330008       0.83594174       0.57644041      -0.11702664       2.32755202      -4.43072900
N       -2.08778238      -2.09060192      -1.12678349       1.93651533      -1.73963630       2.19460464       0.06317727       1.17136732       0.06106840       0.63396189      -0.03416838       0.61116436      -0.27977838       0.47915213      -0.24606648       0.64121479       2.02669449      -1.69980607       2.20684906      -4.58879134
N        3.09023952      -0.13506341       0.19141275       0.04263384       0.12386365       3.34152150      -0.06043116       0.23237086      -0.08151118       0.08878961      -0.08804660       0.17539004       0.07892323       0.20739179       0.18363881       0.60232715       0.14489759      -0.07999669       3.53904716      -4.95619452
C       -4.32882214      -1.75699663      -1.96033907       0.05221431      -3.87085629       0.26407814       0.08674882       0.03527814       0.03935405      -0.01147241      -0.02607669      -0.11709837      -0.09420666      -0.07106930      -0.10542345      -0.16036450      -0.03406479      -3.84751827       0.24361287      -4.56386939
C       -1.38513923       2.80286980       2.54166913      -0.17030348       2.30130291       0.57560229       0.08322908      -0.18077128       0.10364578       0.11825781       0.09097407      -0.27166792      -0.19057437       0.06369058      -0.07630174      -0.37984535      -0.07477697       2.24341763       0.55304020      -4.64729517
C        1.91534126       1.77305818      -0.77939844      -0.01010551       3.10152268      -0.88804001       0.04840701      -0.18721131       0.12685450      -0.10981494       0.10630005      -0.05765389      -0.00005925      -0.05024141       0.02763357      -0.05995629       0.08491920       3.17644679      -0.89138032      -4.68191234
C        0.05890857      -2.87083173      -0.18774691      -0.34390387       0.72436136       1.08273792       0.06906137       0.22179634      -0.04426532      -0.04004719       0.08030489       0.00716140       0.00388370      -0.01138577      -0.03020316      -0.10798761      -0.34053680       0.73447218       1.06122578      -4.56731539
C        0.32829139       2.01433587      -0.85596055      -0.74459875      -1.46214128      -1.36360633      -0.02166106      -0.39783167      -0.22807011      -0.02305961      -0.14524372      -0.40044245       0.01175592      -0.09161939      -0.11719399      -0.09189477      -0.70572524      -1.74166843      -1.21403986      -4.89218828
C       -0.65128541      -1.73454618      -0.97605193      -0.24183166      -1.93805850      -1.05219197      -0.03030263      -0.56493772       0.04828698      -0.09585229      -0.10903575      -0.42975784       0.04723754      -0.08985477       0.05587582      -0.19221148      -0.19263340      -1.78894646      -0.96581093      -5.05633807
H        2.24627304       2.41689706       1.95199585      -0.70873964       1.51380908       1.32802415      -0.08174261      -0.11943726      -0.03828849      -0.03374330      -0.02378640      -0.03926361      -0.00122102       0.08160767       0.08495873       0.00680784      -0.67946713       1.53914493       1.30228433      -4.11869833
H        3.87927103      -1.42806661       1.70329547       0.12353803      -0.72178972       0.16360956      -0.07904278      -0.18412175      -0.01422848      -0.05361825       0.08960796      -0.12256061       0.02036853      -0.06054049      -0.01790663      -0.09813777       0.19738115      -0.69336850       0.15786518      -4.12524235
H        3.04222202       0.35160416       3.37680769       0.39020196      -0.39342001       0.95932674      -0.19020973      -0.15308791      -0.00169399       0.01673631      -0.08342028      -0.18307962      -0.04492278      -0.07154235       0.00354892      -0.35909285       0.32699579      -0.41608235       0.95921214      -3.72923644
H       -1.27722096       1.24059510       1.03157485       0.37122345       1.38942969       0.88842225      -0.11880851      -0.17692229       0.14183596      -0.01623902       0.15560545      -0.53550876      -0.06757926      -0.03541854      -0.00467369      -0.07668012       0.32260633       1.17618859       0.79384968      -3.70420425
H       -0.55290800       0.50506383      -2.14560080      -0.13947076      -0.05935128      -0.72341532      -0.18604563      -0.30293095      -0.05418113      -0.07352021      -0.05389021      -0.19124150      -0.08164353      -0.05755525      -0.01640073      -0.30973122      -0.19305167      -0.04135565      -0.66711277      -3.68547750
H       -2.36941528      -2.93730640      -0.64533943      -0.08846384       0.50783354      -0.06300217      -0.20140497      -0.16991437      -0.23025733      -0.02012609      -0.03411512      -0.31658718       0.01549025      -0.02605985      -0.03341912      -0.23739561      -0.07019375       0.48109176      -0.08289342      -3.55851237
H        3.00083685      -0.72574937      -0.69395572      -0.12734638      -0.61336166       1.05070484      -0.14099474      -0.31123443      -0.25755223      -0.11104803      -0.18269229      -0.58547225      -0.23488323      -0.10537968      -0.21703681      -0.32421404      -0.11830214      -0.57359587       1.16081131      -3.92619651
H       -4.40554714      -2.59510875      -2.69223404      -0.87763375       0.51727366       0.63559991      -0.04880223       0.07511257       0.05796006       0.05633757       0.09011477       0.07490691       0.09455854       0.08663027       0.09733932       0.05969116      -0.88116637       0.53454686       0.66143439      -3.82276770
H       -4.88739824      -0.94304866      -2.19350195      -1.03771996       2.44341159      -1.64694118      -0.05231699       0.02878760      -0.04545565       0.01290296      -0.08220418       0.02564444      -0.03469067       0.05782517       0.00894855       0.01631259      -1.01516103       2.44831137      -1.66275099      -3.83809684
H       -4.73976135      -1.96579790      -1.00129628      -0.04226359      -1.19878924       0.89231819      -0.04937976      -0.06290228      -0.02564134      -0.06897724       0.02058852       0.00039235       0.00269817      -0.00693243      -0.01638847       0.07145105      -0.03663475      -1.21866991       0.92198066      -3.86351744
H       -0.50791085       2.73077345       3.18514395       0.20136493       0.22787091      -0.01825362      -0.05258388       0.03742304      -0.02929690       0.04082609      -0.00411120      -0.01910163       0.02144600       0.02382036       0.01085790       0.03947076       0.17058524       0.22901566      -0.01256707      -3.95405786
H       -1.68711877       3.94005275       2.53485227       0.68597817      -2.23487830      -0.42228687      -0.03957460      -0.00330936      -0.04369714      -0.01387977      -0.04037883       0.10313989       0.04220859       0.02806410      -0.01989158      -0.02933961       0.67160431      -2.18910389      -0.43275455      -3.94443012
H       -2.16754675       2.31220150       3.14750576       0.14323922      -0.26238695      -1.14106059      -0.05648104       0.02335100       0.03008581      -0.05136015       0.01492478       0.00116312      -0.00988329      -0.04806841      -0.03893563       0.04816646       0.12468345      -0.27746061      -1.11658741      -4.00344010
H        2.15529871       1.18428278      -1.64816570       0.09792607       0.12577157      -0.51656502      -0.05668909       0.03848585       0.03259682      -0.02944057      -0.02140115      -0.04207714       0.06121511      -0.08995411      -0.04648184       0.06486689       0.10946963       0.15954554      -0.63113923      -3.86603372
H        2.55152035       2.76543236      -0.79569578      -1.75619233      -1.58719957      -0.46118146      -0.05071294       0.07410925       0.15143771      -0.00692499       0.03974950       0.04591032      -0.00846714       0.00440024      -0.03582268      -0.00092142      -1.80051586      -1.58301747      -0.50539370      -3.86425669
H       -0.30619353      -2.94229698       0.87075901       0.60078871       0.36156029      -0.85351992      -0.03906003       0.06707112       0.03217458      -0.06317661       0.00569500       0.05651027      -0.02335271      -0.05114230      -0.05972843       0.12621206       0.58000971       0.34715162      -0.85270305      -4.02781481
H       -0.16006163      -3.84459615      -0.60523444      -0.30567321      -0.09719060      -0.47737849      -0.04929752       0.01660842       0.01040038       0.00088819       0.04322094       0.22372311       0.04863093       0.00593579      -0.05197355       0.00145491      -0.27347041      -0.08658018      -0.45286991      -3.90595341
H       -0.01554835       2.52729559      -1.80058801       1.24464560       0.35440394       1.25183332      -0.06034803       0.06855111       0.00194336       0.03240114       0.00386969       0.09030115       0.02289253       0.05074169      -0.09382992       0.06385473       1.19947309       0.31827912       1.21034283      -3.74507197
H       -0.18766321      -1.81033158      -1.97670770      -0.27511087       0.68467677       0.54191488      -0.03636265      -0.05610719       0.00266879      -0.05652440       0.00709621      -0.00222387      -0.03267803      -0.03214527       0.05403802       0.11067537      -0.19735245       0.58436446       0.51785678      -3.78839441
46
Properties=species:S:1:pos:R:3:original_dataset_forces:R:3:LES_q:R:1:LES_BEC:R:9:forces:R:3:energies:R:1 original_dataset_energy=-199.7190399169922 energy=-199.7153079489821 stress="inf inf -inf inf -inf inf -inf inf -inf" pbc="F F F"
O        0.25895429      -2.66838622      -2.36923933      -0.42864794       1.11670125      -1.03382051       0.29406640       0.52560276      -0.16865029      -0.26939877      -0.24778372       1.31018989       0.11443483      -0.04563603      -0.42989174       0.52503906      -0.43684710       1.00704744      -1.11529887      -4.63624325
O        0.48466486       0.18979949       3.07377100       0.05898514      -4.27451563       1.79976571       0.33211362       0.70989484       0.10392223      -0.19955711      -0.12457614       1.22532976      -0.42070829      -0.11257843      -0.35733206       0.76345278      -0.07212236      -4.51434738       1.82579584      -4.51215480
O        3.10038853       0.11299181      -1.33387220      -0.67905289       0.41606039      -0.14589979       0.27294207       0.97644826      -0.02056849      -0.05188435      -0.15151331       0.39597433      -0.26171784       0.06274906      -0.29230822       1.25966117      -0.74657951       0.43235988      -0.07459394      -4.66491722
O       -1.13756871      -1.18700337       0.96218556       0.25465500      -0.01861280      -0.42585891       0.14450374       0.83177561       0.21485202      -0.26373500       0.15038853       0.55102192       0.04356890      -0.59792523      -0.21978199       1.27401140       0.32615900       0.00131014      -0.32066906      -4.90180084
O       -0.03583190       2.24347806       2.74457836      -0.64052838       0.80764741      -0.57592160       0.37540925       1.06005530      -0.25609813      -0.12900728      -0.12892140       1.47946201       0.11919087      -0.26195814       0.12261986       0.59094918      -0.70214703       0.87094768      -0.49448947      -4.36389346
C        0.17760319      -1.58545685      -2.97176600       2.05316615      -2.10246563       1.17637467      -0.06633679      -0.74788268       0.64648194       0.77278390       0.58207414      -1.66059265       0.00454954       0.36676554       0.29057150      -0.66151257       1.96369427      -2.02327046       1.35053723      -5.73886916
C        0.66822118       1.22125340       2.50111175      -1.67762721       3.66733384       0.19316956      -0.05034760      -0.72276867       0.35021351       0.52630403       0.43063801      -1.82927851       0.27206510       0.49469493       0.35549792      -0.73642953      -1.46214234       3.86076291      -0.02227259      -5.68818685
C        2.98114753      -0.18506017      -0.15199608      -2.25459623       0.89518857      -1.06330323      -0.07179984      -1.15914047       0.32561882      -0.09610854       0.35732053      -0.27878498       0.43843604      -0.16331362       0.43654130      -1.52851804      -1.98296565       0.91585702      -1.01236304      -5.66339317
C       -0.64130187      -0.79293442      -0.08883181       0.35813275       1.23789668      -0.51405632      -0.07664518      -1.29324473      -0.65457988       0.30153255      -0.65527781      -0.47586050       0.33385306       0.39834181       0.41938173      -1.19459195       0.26254403       1.22904748      -0.63682601      -5.54411065
N        3.99378181      -0.61604524       0.53422242       4.19637680      -0.36988717       1.59837854       0.07397646       0.92405834      -0.20802930       0.18924378      -0.21303014       0.25492204      -0.22769448       0.10742089      -0.19362838       0.60250128       4.07823666      -0.42722837       1.56961124      -4.70181724
N        0.54240996      -0.17103904      -0.29139748       0.83855951      -0.08525766       0.79569983       0.09328419       1.07225172       0.38129057       0.01378729       0.35300002       0.29269799      -0.07417742      -0.01661811      -0.04323298       0.51050932       0.90193184      -0.17292469       0.89839103      -4.65487350
N       -0.62156415      -0.60562950      -2.59889650      -2.38998604      -0.98855048       1.77211630       0.09271190       0.71988385      -0.48369201      -0.43910147      -0.49253181       0.69797717      -0.26388659      -0.32308605       0.20573089       0.73997150      -2.68639349      -1.02873587       1.76486043      -4.60991439
C        1.16386533      -1.16736603      -4.01700830       0.50443530      -1.66756165      -1.51551628       0.09311627      -0.00140220      -0.00944210      -0.28368058       0.06382730      -0.12533630      -0.18209849      -0.16526140      -0.01533257       0.19633268       0.60233052      -1.70674475      -1.47107877      -4.35970546
C        5.38373375      -0.26403943       0.05761123       0.44738480      -0.88661677       2.06681156       0.06936955      -0.54718579      -0.05815206       0.08884360       0.11319548      -0.18126293       0.04424280      -0.00613339       0.03920788      -0.17603445       0.47282460      -0.88296073       2.10342915      -4.70853104
C       -3.64430046       0.14190584      -0.18214250      -0.16292526       1.23746347       2.02014852       0.11026563      -0.00825908       0.02984012       0.02730129      -0.04574478      -0.11942758      -0.00361047       0.01986229       0.00947699      -0.09312021      -0.15237368       1.24559768       2.11384706      -4.76972910
C       -3.09875536       1.22510862       0.78366214      -1.80184877      -1.11834788       1.27306616       0.10888877       0.03861829      -0.07150915       0.01575546       0.17604935      -0.12306404      -0.05907646      -0.00046186      -0.02962620      -0.13938027      -1.73339953      -1.14900502       1.25730730      -4.70030339
C        1.73067236       1.27938938       1.49564290       2.56151319      -1.52331841       0.22049001       0.03882238      -0.09082939      -0.11247602      -0.28295426       0.04728797      -0.12133379       0.06031794       0.05454443       0.10462987       0.17004853       2.51188069      -1.63409437       0.22161765      -4.77412092
C       -2.73445034       0.03328240      -1.37196553      -0.88376147      -1.61212122      -0.82425094       0.07738847      -0.31095396       0.00635488      -0.00095636       0.27836392      -0.14015502       0.05911945       0.20774624       0.00357148      -0.05808040      -0.84112968      -1.63339586      -0.84981015      -4.95086832
C       -3.35530186       0.93468934       2.26825666      -1.25909317      -0.39384639      -1.85114324       0.04202180      -0.47589231       0.15646216       0.01194547       0.05204359      -0.18666409       0.11415331      -0.23669429       0.10041386      -0.16694063      -1.35413071      -0.45423130      -1.81472257      -4.81799716
C        1.68075943      -0.00459248       0.67753214       0.20028560      -1.20895374      -1.64814973       0.00122479      -0.50074512      -0.12820356      -0.31659406      -0.16258372      -0.25009640      -0.04767151      -0.34219287      -0.12481616      -0.18252539       0.03101138      -1.06046417      -1.68480442      -4.91633959
C       -1.47967100      -0.84941018      -1.38742614       0.28702879       0.23351693       0.28021803      -0.02346996      -0.34333985       0.05233381       0.18861840       0.10861564      -0.17015521       0.12843296       0.08126757      -0.01803089      -0.40019391       0.74904431       0.33937777       0.11338257      -4.94197394
N       -2.19480014       0.35341054       2.89473748       0.21888645       1.10174119       0.49128002      -0.03733661       0.41938686      -0.10162710      -0.02807543       0.07570476       0.27236184      -0.15668401      -0.03924663       0.00933940       0.42814578       0.35284577       1.14798154       0.51005050      -3.74194901
H        3.88672423      -1.07636762       1.42908978      -0.04445731       0.53779107      -0.22528382      -0.19422099      -0.25486722       0.00619105      -0.01331200       0.02277925      -0.20566273       0.04592237      -0.10692615       0.05832154      -0.29201640       0.04720625       0.52076170      -0.21648075      -3.62732424
H        0.84826559      -0.22983050      -1.26798129      -0.01481994       0.59864855       0.88325763      -0.18244456      -0.05898352      -0.00898481      -0.00430837       0.03930107      -0.21168186      -0.04111616       0.22115234      -0.02426331      -0.26229415      -0.04294351       0.48877912       0.82017115      -3.55790501
H       -0.49109530       0.18440270      -3.17040944      -0.81331414       1.47417486       0.13125487      -0.19825047      -0.20133284      -0.07214973      -0.12372512      -0.05637650      -0.20819264       0.16213156      -0.00224005       0.07997794      -0.26876401      -0.84395273       1.54688670       0.01959669      -3.49988984
H        1.49137616      -0.10423785      -3.96588016      -0.28440234      -0.93937480      -0.09663256      -0.04996371      -0.01959867       0.02906923      -0.00510318       0.03459160       0.08290708      -0.04136521      -0.02301776      -0.01295881      -0.07486693      -0.32392563      -0.95126618      -0.06442145      -4.13609959
H        0.68109804      -1.45040345      -5.00529528       0.75494957       0.72531837       0.87327027      -0.04822144      -0.01129444       0.02006388       0.08908685       0.00798920      -0.00807923       0.05017681       0.02995817       0.02211919       0.07883524       0.80020433       0.77017216       0.86551429      -3.92265961
H        2.00653386      -1.89787269      -3.88122892      -0.55736697       1.13219774      -0.28402132      -0.04502067       0.08296698      -0.05907061      -0.07446816      -0.10008202       0.03737228       0.07145453      -0.01556731      -0.02111423      -0.05557451      -0.56597473       1.13958915      -0.26275128      -3.91171269
H        5.48997784      -0.55504632      -0.93457103       0.07175294      -0.74655288      -1.65609050      -0.04347089      -0.08301979       0.03401250      -0.03025721      -0.11113192       0.00043451       0.00525364      -0.00226689       0.00803675       0.06803934       0.05389425      -0.72110248      -1.70649580      -3.94260006
H        5.64406633       0.78989881       0.05936450      -0.71185392       0.31479535       0.37302595      -0.05222719      -0.00274201       0.03037455      -0.02313352       0.02271255       0.06552398      -0.00788314       0.06010274      -0.02537263      -0.01991419      -0.67319776       0.31597922       0.33612470      -3.97627328
H        6.21808434      -0.75613129       0.65359360      -1.51794910       0.28515789      -0.49829760      -0.05127920       0.13465435      -0.03965372       0.04390268      -0.00471912      -0.00399949      -0.01700945      -0.01483790      -0.01314993       0.00180380      -1.49460203       0.28387211      -0.46424869      -3.95321105
H       -3.78084135      -0.75454646       0.42268574      -0.18897954      -0.24066654      -0.62679899      -0.06194554      -0.13513468       0.01702054      -0.02754338      -0.04545921       0.06878425      -0.04286323       0.02821864      -0.05591232       0.07804609      -0.24282193      -0.22132526      -0.63873522      -4.00407216
H       -4.59879732       0.66288584      -0.40621436       0.21442789      -1.45034218      -0.69145954      -0.06204691       0.13713011      -0.03535950      -0.00417891      -0.01149026       0.00810757       0.00960829      -0.11248017       0.02478944       0.01347331       0.22628004      -1.45573384      -0.61017387      -3.75863172
H       -3.68041539       2.10057759       0.62188834       0.38627577       1.11520970      -0.62175852      -0.06811395      -0.07653048      -0.01015763       0.01888693      -0.04660193       0.07758643      -0.00843443       0.03954496      -0.02882362       0.00942579       0.35330242       1.13911176      -0.58820194      -3.79048853
H       -2.08228135       1.28494048       0.62129003       2.10319972       1.04465616      -0.18895204      -0.05204865      -0.02712402       0.08561062      -0.03612231      -0.00131564      -0.00810294       0.02384292      -0.09060531       0.05268945       0.02493967       2.00881731       0.96875745      -0.24983409      -3.86683584
H        1.97103095       2.14684033       0.95956820      -0.84929127       1.34392965      -1.09125435      -0.05805038       0.12754079       0.14146936       0.06382761       0.04182509       0.16682312      -0.03749806      -0.00707583      -0.05044152       0.04114008      -0.92576059       1.35018679      -1.15945373      -3.98883143
H        2.66458225       1.23493576       2.11251044      -0.52300197      -0.49538434      -0.33650994      -0.04295474       0.07591388       0.01655844       0.05887701       0.09366826       0.06085480       0.08088610       0.00284397      -0.01009982      -0.00645825      -0.49414614      -0.52323064      -0.23784320      -3.69719610
H       -3.38352180      -0.33695289      -2.16843796       0.41748309       0.16757581      -0.38227323      -0.06229073       0.06847126      -0.00236499       0.06486713      -0.03442755      -0.00971908       0.01057246       0.03171372       0.01069062       0.06691210       0.37617606       0.19353537      -0.39472680      -3.79378416
H       -2.45096540       1.01310849      -1.57514977       0.51221007       1.77774823      -0.80283153      -0.06833989       0.01733974       0.00816425      -0.00009422      -0.07070938       0.09507063      -0.06009929       0.10049547      -0.04743966       0.01483784       0.56086034       1.76443238      -0.78969832      -3.79079358
H       -3.57669067       1.82716584       2.82623720      -0.25577176       0.31338593       0.08540640      -0.06869336       0.01468922      -0.07012207      -0.08713380      -0.08178598       0.05675837       0.09701884      -0.07651443       0.06447358       0.08586992      -0.25574256       0.30390477       0.07329379      -3.86945894
H       -4.23123837       0.24734885       2.28838301       0.62983698       0.39779174       0.47695023      -0.06453658       0.07582515       0.05026879      -0.01815888       0.04327490       0.00685385      -0.03891802       0.05822988      -0.03140771      -0.01920460       0.68974972       0.44225273       0.50962842      -3.82779586
H        1.65983367      -0.84162849       1.36599469      -0.32800132       0.02916512       0.23323251      -0.03543128       0.05078430       0.02255112       0.06629040      -0.03260161       0.03099874      -0.07655404       0.06416822      -0.04312209       0.05106573      -0.34992830       0.06559286       0.19534796      -3.73635028
H       -1.79221869      -1.88146567      -1.33428192      -0.02722966      -0.31298468      -0.77508038      -0.04932597      -0.00054798       0.03172899       0.05924631      -0.00656691       0.06085373      -0.05916466      -0.05394866      -0.08124422      -0.07251105      -0.05071048      -0.32794371      -0.74191423      -3.71008456
H       -2.56146765      -0.08991134       3.70087504       0.68482971      -0.49494171       1.31590998      -0.18063176      -0.24728821      -0.02322545       0.05020190      -0.02294868      -0.22533490       0.03435579       0.08601722       0.06284415      -0.34374711       0.59691926      -0.42516323       1.31905461      -3.39188810
H       -1.64578581      -0.29335150       2.34355807       0.23942402      -0.79467314      -0.64579737      -0.07995281      -0.24406397       0.06510764       0.08974547      -0.06603729      -0.30888153      -0.12583882       0.15622606      -0.28183991      -0.51455429       0.26523902      -0.70592089      -0.70694791      -3.77218352
H       -1.50890708       1.13729668       3.07563877       0.29764366      -0.24719582       0.46004903      -0.11339410      -0.49911944      -0.23144441       0.06754420      -0.18043428      -0.44719980      -0.06951805       0.14452236      -0.02975437      -0.32777867       0.20278540      -0.32501456       0.46129454      -3.46375454
42
Properties=species:S:1:pos:R:3:original_dataset_forces:R:3:LES_q:R:1:LES_BEC:R:9:forces:R:3:energies:R:1 original_dataset_energy=-189.50729370117188 energy=-189.47359221569354 stress="-inf inf -inf inf inf inf -inf inf inf" pbc="F F F"
O       -0.19314408      -0.25448725      -4.81745291      -0.35627836       1.77362704       1.48705888       0.30530342       0.34895510      -0.11197958      -0.15228763      -0.10711417       1.08850180       0.65055558      -0.01643062       0.13160278       1.00812667      -0.39294658       1.71176259       1.49721453      -4.55549515
O        2.89740205      -2.26538658       1.29075360       0.81526721      -0.74260384      -0.47626469       0.35986480       1.14502595      -0.19579618      -0.29018190      -0.19485112       0.92272064       0.34962386      -0.59286876       0.32108018       0.99324814       0.85684542      -0.78471252      -0.55330941      -4.55913019
O       -1.22985959       0.18595105       2.31404209      -0.32566404      -1.44536614      -0.59333992       0.23664494       0.91811862       0.53915774       0.18232759       0.20756157       0.82180653       0.62268360      -0.06758165       0.31358792       0.74143210      -0.17833667      -1.43204562      -0.59510800      -4.78169155
O        0.08256918       2.10769391      -0.63769639      -0.94426543      -0.03394582      -0.13791205       0.26975000       0.39742017      -0.02314310       0.18720094      -0.18672125       1.27601137      -0.24413262       0.15757124       0.06616189       0.72839372      -0.95897831      -0.01140001      -0.17673618      -4.71843816
O        1.27000070      -2.37115288       2.80612087      -0.57443088      -0.67545855       1.11182606       0.33120480       1.04581263       0.33613393      -0.51567017       0.35180959       0.90549735      -0.23984534      -0.30240944      -0.11311001       0.87662821      -0.49228963      -0.70133463       1.15948520      -4.63840012
C       -0.37899458       0.91702640      -4.39684010      -0.36655027      -4.02547550      -0.94533324      -0.07855665      -0.10014837       0.14498481       0.13234482       0.17525559      -1.29306345      -0.36856699       0.00395771      -0.17256987      -2.13620929      -0.22612437      -3.86481149      -0.91237855      -5.57321434
C        2.19429064      -1.81645477       2.20186043      -1.41854024       2.15418124      -2.21508026      -0.02561916      -1.28938903      -0.15410869       0.98332053      -0.05619506      -1.39504740       0.01522087       1.05616890      -0.13955174      -1.09156478      -1.39406675       2.26180518      -2.12118369      -5.54269297
C       -0.20219383       0.79881859       2.47152090      -0.81903416       2.14310670       1.20596361      -0.09269495      -1.01312900      -0.44885279       0.10203373      -0.34644380      -1.31790292      -1.21890950       0.13966661      -0.86320143      -1.12489283      -1.01663572       2.22627667       1.30630224      -5.71641904
C        0.14769286       0.88913512      -0.69746089       1.86603761       0.89165866       0.91172111      -0.08812226      -0.35343487       0.27452168      -0.50898029       0.28037881      -1.51084269       0.38092191      -0.44254408       0.12610060      -1.06252813       1.90117602       1.02944859       1.05574457      -5.56811449
C       -1.52966714      -1.96593380       0.41778287       0.35287550      -0.89637071      -2.60771513       0.03233768      -0.14634302       0.06164968      -0.08280254       0.07398255      -0.17011860      -0.02167528       0.04090847      -0.09364579       0.02291204       0.43563854      -0.84832312      -2.67214566      -5.49886259
C       -1.07777107      -1.96094489      -0.90820682      -3.35986423       4.56230927       0.39165407      -0.03253255      -0.14360257       0.28909899       0.12685956       0.24142943      -0.21865179       0.02810816       0.11857266       0.33315919      -0.17143496      -3.54086464       4.74394557       0.43465917      -5.37906747
C        0.24328399      -3.27831292       0.13165954      -0.81314290       0.45416516       1.38526261      -0.05179207      -0.22131952       0.00481022       0.04990662      -0.00760181      -0.03093154       0.10699447       0.05839883      -0.09953243      -0.58411715      -0.76008780       0.42137479       1.46380066      -5.62983598
N       -0.73651248      -2.87274218       0.99412513       2.49590397      -1.22408676      -0.44108397      -0.03243168       0.27997169      -0.00868221      -0.05632980      -0.09231515       0.10263855      -0.01000518      -0.04577390      -0.03419216       0.42068457       2.44997072      -1.37619924      -0.45952220      -4.89042444
N       -0.18994060       1.84101558       3.35795975       1.92045498      -0.09511805      -0.15042368       0.11975601       0.47890986      -0.09512705      -0.35562874       0.13001131       0.81872977       0.75238297      -0.10662707       0.61641462       0.95915730       1.92621404      -0.20999735      -0.11572352      -4.62409686
N        0.81094557       0.22330755       0.31503037       0.03085201      -1.60072970      -0.67461544       0.10612084       0.31211512      -0.22124886       0.35651123      -0.01234365       0.50350754       0.01745310       0.24598263      -0.21254227       0.81344441      -0.01995085      -1.68290505      -0.61168945      -4.47116568
N       -0.41816106       1.20639145      -3.05744910      -0.33197549       0.03636732       0.80079436       0.10710748       0.15912009       0.04613403       0.00733839      -0.02399174       0.62785090      -0.18250495       0.06237347       0.15581232       1.70255570      -0.31736564       0.05416587       0.77992877      -4.49428709
N        0.01767820      -2.67618465      -1.04479635       2.35129404      -2.12058544       1.20044792      -0.07011461       0.21491418      -0.31292693      -0.19018435      -0.11052104       0.23551624      -0.13000970      -0.12067181      -0.15998110       0.41107481       2.41510741      -2.11784501       1.23015451      -5.05769797
C       -0.51482344       2.00190163      -5.41137028      -1.68291199      -1.29151630      -0.63209772       0.08298294      -0.14358417       0.03496780      -0.05780303      -0.00919816       0.16282460      -0.37046112       0.00672385      -0.18319666       0.18035981      -1.70668347      -1.23249535      -0.67097126      -4.65295906
C       -1.17330801       2.28534150       4.32506371      -1.54797447      -0.24726991      -1.78341389       0.08758746      -0.30259934       0.06469469       0.20691719      -0.03384829      -0.04161411       0.17265494       0.18012076      -0.08150321      -0.29890724      -1.59100284      -0.22359054      -1.86577428      -4.85174676
C        2.21957946      -0.22522819       2.33230591       0.47752914      -0.30658782       1.35954499       0.11166975       0.03601518       0.01869870       0.03650564      -0.08346155       0.31558002      -0.05132839       0.01564807       0.03540460       0.04274954       0.45995899      -0.38930323       1.36283806      -4.28208809
C       -1.42717481      -0.81500530      -1.79720235      -2.57432675       1.55366409       0.29314131       0.05464437      -0.09552652       0.02377170       0.17733859       0.03566590      -0.00842754      -0.04289705      -0.09844372      -0.12559943      -0.12024008      -2.57895467       1.39460897       0.28668792      -4.82619893
C        1.09347200       0.69547725       1.69606209       1.26941788      -0.93791515      -0.62720323      -0.01455713      -0.36323847      -0.01552581      -0.39655884       0.01885309      -0.17613582      -0.06383426      -0.29991858       0.00777312      -0.66490627       1.22284376      -0.89948745      -0.83297880      -5.02179783
C       -0.29413691       0.16014719      -1.99505293       2.30106425      -0.23896438      -1.25783110      -0.03622376      -0.28493744      -0.04189157      -0.10664821      -0.00559783      -0.42929717       0.43102368      -0.01164397       0.28607251      -0.69399001       2.33207892      -0.36244390      -1.28917183      -5.00675567
H       -2.29154611      -1.41248560       0.93265748       0.08037386      -0.01479200      -0.15948299      -0.06016942      -0.07092443      -0.09134991      -0.03139922      -0.01032158      -0.05272007      -0.06664317      -0.03548294      -0.02201786      -0.08024748       0.12365041      -0.02440826      -0.16490658      -4.15566725
H        1.12420774      -3.80696416       0.42166403       0.24242094      -0.19177374       0.12146806      -0.06783785      -0.11597492      -0.06841626      -0.00856136      -0.02875447      -0.23134306      -0.04681050      -0.01353286      -0.03666967      -0.10654197       0.24585177      -0.16436309       0.16584478      -4.16530910
H       -0.54228210      -2.94556856       1.97620296       0.18410654      -0.14869219       0.74408072      -0.17420396      -0.35046594      -0.00569227      -0.13629082      -0.06740378      -0.21672282      -0.02737830      -0.04769299       0.10574172      -0.43130247       0.12198566      -0.11434873       0.73362714      -3.71496178
H        0.63595051       2.44545603       3.26905107      -0.80822229      -0.53083283       0.38210031      -0.19872981      -0.23534587      -0.05336581      -0.02439955      -0.04341153      -0.18262740       0.03236501      -0.01026138       0.00686375      -0.21727226      -0.81006996      -0.56515993       0.39426683      -3.53699787
H        1.18327737      -0.71817058       0.10991898      -0.45951054       0.91190070       0.38849303      -0.18785235      -0.23952939       0.02682423       0.04879692      -0.01028437      -0.27106178       0.01097904       0.05234867      -0.00507433      -0.09275708      -0.40873168       0.84801211       0.44167440      -3.69586165
H       -0.27888003       2.16925073      -2.70722222      -0.37830031      -0.97917408      -0.27496353      -0.18499945      -0.19153095      -0.01078646      -0.03930516      -0.01511564      -0.27390932      -0.03776291      -0.04105666      -0.09081402      -0.35052313      -0.36214856      -0.96330759      -0.29238264      -3.64352353
H        0.79505521      -2.59934664      -1.70771265      -1.02326822      -0.14968194      -0.05916603      -0.19828272      -0.27555057       0.09895870       0.09572367      -0.01157262      -0.24849718      -0.03942222       0.05160690      -0.05752538      -0.27093739      -0.91891620      -0.10170470      -0.13748286      -3.61644637
H        0.28416675       2.50194073      -5.04521656       2.54140925       3.02022433       0.19385654      -0.05595793       0.02405846       0.00418499       0.10197021       0.04283412       0.00912882       0.06744393       0.02376312      -0.02521064       0.09077581       2.50134137       2.90975922       0.22111314      -3.56750323
H       -0.31377175       1.64430547      -6.44871998      -0.32349464       0.13710959       1.15473628      -0.04488716      -0.00772334      -0.00296978      -0.03050570      -0.00504613       0.01423147      -0.03075065      -0.00669824       0.01101643       0.07592973      -0.29695885       0.10572763       1.14547350      -4.04240709
H       -1.44219780       2.57267427      -5.32359886       0.30136594      -0.04414884       0.00115862      -0.05528527       0.06142007      -0.05771208       0.02649714      -0.06390526       0.01555165      -0.01637704       0.01231952      -0.02157234       0.02540573       0.24862083      -0.00155742       0.02456706      -4.04980175
H       -1.39956653       3.29990315       4.02154636      -1.07318401       0.07003686      -0.14197870      -0.05504354       0.00691667       0.01002546       0.02528431      -0.04545242       0.02123400      -0.04946596      -0.02235035      -0.01385234      -0.01451289      -1.07127310       0.06869817      -0.09485216      -3.82658368
H       -0.77036887       2.43732500       5.24777555       1.72478807       0.00188544       2.60868311      -0.05949124      -0.00270945       0.02747891       0.05773833       0.00859199      -0.04823875      -0.03764416      -0.00814564      -0.01429974      -0.00276616       1.72933751       0.01374946       2.56759403      -3.84288785
H       -2.06085515       1.63282084       4.55086946       0.93551683       0.58831525      -1.19843578      -0.04662762       0.11284438      -0.05603012      -0.20786401       0.08464768      -0.05862062      -0.14316020      -0.05465106       0.03226053       0.07710659       0.98564091       0.60990817      -1.21443574      -3.99089871
H        3.15225744       0.22456568       2.00318456       0.12880535      -0.47871953      -0.50472015      -0.04821128       0.15364563       0.04738149       0.05284039       0.03680209       0.06738527      -0.04335801       0.00291897      -0.02048858       0.02032400       0.14292286      -0.61393969      -0.48666952      -3.91645554
H        2.32665348      -0.16063768       3.42928147      -0.83150774       0.79122597      -0.28146797      -0.04957577       0.07515954       0.00471996       0.17463500      -0.02409002       0.01347479      -0.06852115       0.03392108       0.00116411       0.12195124      -0.80959690       0.81090676      -0.27377275      -3.87609085
H       -1.97212648      -1.03295732      -2.70596528       0.63833159      -0.43457556      -0.54571891      -0.05453265       0.02266705       0.02065622       0.07091411       0.00846494      -0.01274174      -0.02283405       0.10004208       0.02926407       0.11283789       0.58117825      -0.44419822      -0.56054996      -4.02898836
H       -2.18941641      -0.19476068      -1.28491056       0.08006132      -0.69465774       0.19540156      -0.06051579       0.08186612      -0.05231726       0.01499529      -0.02161987       0.06912682       0.00412513      -0.05755674      -0.02405487      -0.03121405       0.09134443      -0.60200474       0.16840199      -3.74182730
H        1.64086390       1.66506672       1.69592142      -1.00239038      -0.40492779      -0.35900491      -0.05368419       0.05489935       0.01511401       0.02262991      -0.02466801       0.14107774      -0.01290147       0.03764018       0.01688086       0.10322384      -1.07751542      -0.34645725      -0.41634215      -3.77275948
H        0.50735027      -0.53278947      -2.32548809       0.27258283       0.86574078       0.13001874      -0.04498624       0.01715142      -0.06604520      -0.04922878      -0.05443831       0.05612001      -0.05533606       0.00168876       0.01384465       0.01854387       0.15779079       0.86819436       0.07870870      -3.68804344
46
Properties=species:S:1:pos:R:3:original_dataset_forces:R:3:LES_q:R:1:LES_BEC:R:9:forces:R:3:energies:R:1 original_dataset_energy=-202.10911560058594 energy=-202.0546140134264 stress="inf -inf inf -inf inf inf inf inf -inf" pbc="F F F"
O        4.16180897      -2.41767812      -0.81886500      -0.42207068       0.43780228       0.21378288       0.27993119       1.33500578      -0.06614248       0.12656785       0.23791323       0.61588908       0.24963065       0.39949522       0.14653442       0.50391146      -0.40133264       0.43198332       0.20289452      -4.64837487
O       -1.26536679       3.93431139       0.16684431      -0.41452673       0.35734129      -0.74511051       0.39399961       1.14650364      -0.62913623      -0.05639241      -0.46497054       1.07084060       0.16016295      -0.36823203       0.56980801       1.04074055      -0.41149726       0.29317415      -0.82393159      -4.37286776
O       -2.06401563       0.96472669       0.71228898      -0.33631822       0.01474765       0.70300281       0.14342196       0.95985132       0.22013936       0.41665657       0.23431444       0.38441177       0.13128324       0.54759521       0.28137280       1.33927185      -0.36653833       0.05005633       0.80504723      -4.86246158
O       -0.75735700      -1.61586308      -1.49347568       0.87614411       0.11880306       0.41301095       0.28283155       0.87856509       0.40137994       0.28798256       0.11262920       1.10190674       0.18360876       0.21341084       0.20520916       0.49489982       0.89763343       0.14110151       0.42308532      -4.66594923
O        0.63824600       2.94336748      -0.16541490       1.41148531      -0.49908674      -0.64044315       0.27710769       1.23796618      -0.42543848       0.00124558      -0.28294488       0.86247871       0.07021637       0.28905399      -0.09167649       0.98361590       1.46171265      -0.54501630      -0.66411444      -4.72311504
C        3.16528559      -2.89276385      -1.33799624       1.35862827      -0.87835139       0.10192275      -0.05113695      -2.09647525       0.41854256      -0.14624401       0.09323278      -0.77669996      -0.43008245      -0.40305581      -0.32319449      -0.34385139       1.37531661      -0.83200150       0.09759044      -5.83867061
C       -0.49927944       3.28822327      -0.57698298      -1.26287234       0.02125134       1.98444605      -0.07350712      -1.80849715       0.97517520      -0.15564530       0.62977115      -1.12587493      -0.47120733      -0.06186761      -0.49857851      -1.20230469      -1.31933701       0.10763678       2.09774405      -5.52860356
C       -2.37723708       0.90816665      -0.46118701       0.01033018      -0.84712607      -1.09016204      -0.07832038      -1.59112425      -0.35348167      -0.39635689      -0.47160386      -0.21858318      -0.13981328      -0.52157096      -0.17402672      -1.40696530      -0.10406710      -0.80991417      -1.11679094      -5.66407812
C        0.11624992      -0.82597530      -1.11328518      -1.27029836      -0.28300858      -0.61429089      -0.07867677      -0.96443002      -0.29262614      -0.51783168      -0.02129227      -1.80299877      -0.10903811      -0.31911679      -0.15064743      -0.27819418      -1.31883658      -0.34352010      -0.61502872      -5.60125809
N       -3.59458065       0.53199697      -0.90722060      -0.09106486       0.49971420      -2.09182382       0.08945636       1.15822205       0.22942583       0.26961025       0.32779558       0.15408044       0.11637874       0.03746510       0.04714212       0.53711023      -0.04761642       0.50112689      -2.09067939      -4.76725176
N       -0.05937700       0.49723330      -1.20952165      -0.31988522      -0.08413296      -0.08663700       0.10229926       0.62158471      -0.21561438       0.17852572      -0.09564210       1.30398045      -0.05988207       0.17359391      -0.09631055       0.21852667      -0.21275554      -0.10614912      -0.09084698      -4.66313814
N        1.92271471      -2.39462185      -1.27675807      -0.20190570       0.19428086      -0.64779097       0.07158433       1.14548074      -0.30857753      -0.01569523      -0.37114593       0.44135556       0.15844486       0.05549585       0.03407844       0.34845584      -0.25627382       0.20260629      -0.63662204      -4.70285641
C        3.25567150      -4.22081184      -2.09894705       0.83250993       1.21322191      -0.48923302       0.09811682       0.00803940      -0.06214609      -0.02050874       0.04284067       0.02908763       0.10390027       0.04316766       0.08767064      -0.07168712       0.84752461       1.23375828      -0.49767492      -4.50076699
C       -4.76534271       0.22861925      -0.12735474       1.21998918       0.68279558       1.73085558       0.08089470      -0.41745124      -0.05010407       0.12070200       0.02062156      -0.14641248       0.04715906       0.09100553       0.04678936      -0.22816485       1.22433628       0.64274534       1.74990978      -4.85079968
C        0.69608170      -0.78144157       1.93093133       0.25325823       0.42209229      -0.84873450       0.10041522      -0.11819223      -0.03879371      -0.04738734      -0.03406424      -0.11673955      -0.00753542      -0.05043393      -0.03994009      -0.05687490       0.14289929       0.35259108      -0.91873527      -4.86216408
C        1.54564452       0.52609682       2.01164794       0.12040017      -0.72964740       0.05250734       0.10396033      -0.08013399      -0.06128949      -0.05694946      -0.03314013      -0.11693227      -0.00142615       0.04711273      -0.01081554      -0.14565998       0.15073203      -0.64521725       0.16798151      -4.74805417
C       -1.07669592       2.62575793      -1.81273043       0.35600314       0.60952342      -1.69982505       0.06158780      -0.03360687      -0.01178678       0.09100975      -0.00590160      -0.04277358       0.07577015       0.05840137       0.07182605       0.08280672       0.33309895       0.62253989      -1.71057604      -4.58495378
C        1.15899992      -1.84937561       0.92480087       0.04715019       0.38107350       0.22555824       0.11175886      -0.06499121      -0.04389517       0.09356914      -0.04524915      -0.00600346      -0.05908586       0.00950559       0.06384011      -0.17729009       0.07700291       0.41554397       0.26698106      -4.57037384
C        0.96017283       1.61449933       2.91322303      -0.23976870      -0.98414642       0.29521158       0.02115272      -0.45569211       0.16297735      -0.11244069       0.15918349      -0.25956819       0.01691311      -0.08551720       0.06363200      -0.30655762      -0.13911100      -1.04058295       0.24095114      -4.90078919
C       -1.33416653       1.13758981      -1.58443511       1.03912723      -0.07098483       0.92508811      -0.01710540      -0.42412226       0.18177379      -0.08584834       0.20769969      -0.45283374       0.20646895      -0.09461717       0.12161482      -0.19082023       1.07723673      -0.05423807       0.85288030      -5.11767785
C        1.42802048      -1.29390609      -0.48034376       0.08519902      -0.17261979       0.10884339      -0.02402669      -0.19664003       0.11328372       0.15698893       0.12720689      -0.34946531      -0.07059198       0.07766084      -0.01700570      -0.30443974       0.12486793      -0.20165528       0.09866740      -5.14930447
N       -0.22202128       2.28642678       2.28161287      -0.03113860      -1.14272451       1.25810087      -0.02971108       0.48543024      -0.20113281      -0.09624090      -0.03758926       0.33378454       0.05693310       0.07990327       0.09066388       0.50450671       0.04247999      -1.17629496       1.17741636      -3.69337193
H       -3.73624754       0.42599848      -1.92217016       0.60277385       0.18619196       1.06677473      -0.19752814      -0.26982572       0.04535689      -0.05353954       0.02300448      -0.18761497      -0.01596877      -0.05259336      -0.00620439      -0.25245303       0.60128255       0.23526616       1.08553109      -3.55737951
H        0.66146582       1.08761048      -0.84014332       0.01035569       0.73951262       0.07826696      -0.17201868      -0.18408625      -0.10356737       0.00182376      -0.10845774      -0.40868441      -0.12935978      -0.00634644      -0.20425709      -0.21841703       0.00765265       0.74225850       0.05755688      -3.64530155
H        1.24823570      -2.90327787      -1.80937982      -0.58484364       0.01664833       0.01558586      -0.19672959      -0.25862818      -0.03708252      -0.04262093      -0.08917088      -0.12438897       0.02297759      -0.08154958       0.05222241      -0.17582051      -0.60946974       0.04675236      -0.02283334      -3.52931236
H        2.94848752      -4.07669258      -3.12862086      -0.01347298      -0.08840510      -0.19073845      -0.04982304      -0.01634471       0.00531859       0.03700494       0.00284491      -0.02709569      -0.00496122       0.00566426       0.01126288       0.08814172      -0.01841206      -0.08385272      -0.19753219      -3.98570586
H        4.25810575      -4.63475180      -2.05998230       0.11565201       0.40094933      -0.07047976      -0.04423968       0.09304707      -0.08358409      -0.02738434      -0.08596841       0.08003778       0.03538777      -0.02041301       0.03209488       0.00388146       0.10844464       0.38722259      -0.05094603      -3.99468223
H        2.63827920      -4.93348598      -1.65389848      -1.28069496      -1.10740972       0.68681657      -0.05296237      -0.00432174       0.06338316      -0.01015725       0.03478066       0.03811361      -0.03022850       0.00253763      -0.05344903      -0.01927825      -1.28452816      -1.11741353       0.69555961      -3.94158905
H       -4.67723703      -0.79845262       0.18144047      -0.50797176      -0.46972799       0.19698963      -0.05887831       0.02773211      -0.00839005      -0.01709389       0.11341483       0.04776446      -0.03820632      -0.02409035      -0.02706376      -0.00782574      -0.52211958      -0.45674725       0.21294927      -3.96403462
H       -5.67581320       0.44000068      -0.65342045      -0.23391354       0.01822473      -0.30176958      -0.06220100       0.17884051      -0.00580828       0.01258207      -0.05009782      -0.02244053      -0.01052780       0.03798455      -0.00660689      -0.00609811      -0.23325125       0.01047896      -0.32181088      -4.03658218
H       -4.69163465       0.86202347       0.77878940      -0.38556355      -0.43118349      -0.40585572      -0.04219897       0.03037572      -0.00659676      -0.01719152      -0.08452799       0.00451444       0.02895176      -0.07809971       0.02409065       0.07114804      -0.38464684      -0.44212969      -0.40345832      -3.92881334
H        0.68237489      -1.24000466       2.89338994      -0.09073988      -0.23447426       0.83656013      -0.06422127      -0.00822935       0.02051325      -0.02876062       0.02057584       0.05581152      -0.01868045      -0.03384434       0.02783115       0.12442371      -0.10737929      -0.24958521       0.82551412      -3.91631804
H       -0.32114014      -0.57551640       1.65333319      -0.56798571       0.45114294       0.07969041      -0.04645846       0.09383392      -0.01149301      -0.05300877      -0.01316002      -0.00193474       0.05326758       0.00770675       0.02764034      -0.00874534      -0.52129663       0.47007023       0.13559584      -4.00121018
H        2.53735924       0.22937468       2.39983916      -0.39131418       0.36587256      -0.12981142      -0.06344807       0.11125921      -0.04527935       0.00155847      -0.01485780       0.03292331       0.03638063      -0.02356006       0.00266686      -0.04429786      -0.39567529       0.39427441      -0.11257743      -3.92741521
H        1.70680785       0.98300612       1.04616845       0.06829581      -0.04354745      -0.26679555      -0.04713472      -0.01980856       0.03288818       0.00341836       0.04705356      -0.01874109       0.01377326      -0.09333288       0.02130017       0.06978380       0.01767614      -0.06426440      -0.33281944      -3.96976525
H       -2.02654982       3.08747530      -2.10287285       0.22689815       0.02906238       0.29728365      -0.05623681       0.05117865       0.01434295       0.02117625      -0.10514264       0.10787503      -0.06896812       0.09134808      -0.05158109       0.05826440       0.23478867       0.00495333       0.28274774      -3.95613212
H       -0.39527613       2.75501776      -2.70432186      -0.53536034      -0.32425374       1.01757050      -0.04870984       0.03819980       0.03497956      -0.05736503      -0.00180583       0.03911701      -0.02694097      -0.02453714      -0.06206330       0.14910119      -0.52907460      -0.32316630       1.02798195      -3.94955945
H        0.42426342      -2.67936468       0.84771144       0.35154966       0.67754424       0.06185656      -0.04992570       0.04686195       0.03871228       0.00563974       0.09069369       0.06826124       0.05235570       0.01905012       0.00251708       0.04406268       0.32237049       0.64842242       0.06921419      -3.99819052
H        2.09540844      -2.28579879       1.24499846       0.26224869      -0.12102982       0.11947645      -0.05580720       0.03235651      -0.00971540       0.01294080      -0.05794263       0.03386918      -0.01467814       0.02715777      -0.03341824       0.03145925       0.24939986      -0.10404981       0.12409456      -3.94769730
H        0.64705801       1.12144244       3.83913350      -0.14167601       0.38320804      -0.04494934      -0.06694627      -0.01159142      -0.03558904      -0.05761102      -0.00701428      -0.00279520      -0.05325921      -0.03436540      -0.03470291       0.07701081      -0.13441638       0.38266080      -0.07518072      -3.87653498
H        1.70947576       2.35912323       3.15645719      -0.09398757       0.16805598      -0.12358519      -0.06538932       0.03040075       0.02880559      -0.02252886       0.04476474       0.08161555       0.08707948       0.02615747       0.06582734      -0.01285812      -0.12755595       0.16293801      -0.14228589      -3.93209572
H       -1.68855047       0.70734441      -2.49925470      -0.15949723      -0.37605619      -0.40046296      -0.05230189       0.09632223       0.02214544       0.04474024       0.03605841       0.07567817       0.03558302       0.05646134       0.05021954       0.05105754      -0.15132243      -0.38736984      -0.37161125      -3.81845551
H        2.16245651      -0.46829194      -0.42476189      -0.31259632      -0.61778283      -0.24466442      -0.05465065       0.03207555       0.06298771       0.01398873       0.06776465       0.03009633       0.00889381      -0.00556100       0.01562609       0.00162752      -0.26407991      -0.59466015      -0.19373984      -3.87997528
H        0.07765031       2.80874228       1.47060895       0.53504646       0.83122987      -1.33967042      -0.08434097      -0.22535024       0.04444157       0.21205250      -0.00683395      -0.25010045       0.04836102       0.16928087       0.03488317      -0.63100924       0.51527907       0.83168749      -1.27133992      -3.61915747
H       -0.70079702       2.91327667       2.91256738      -0.03734607       0.12762891       0.06113492      -0.17804477      -0.18060735       0.06358909       0.08752170       0.01265379      -0.26138355      -0.09529180       0.03359626      -0.10283111      -0.32732471      -0.05141610       0.17711852       0.06685592      -3.46301616
H       -0.91763765       1.62062669       1.89755630       0.13888744       0.15245180      -0.06272317      -0.09673588      -0.40898293      -0.07289111      -0.10250315      -0.19829430      -0.27342808      -0.14414812      -0.21710744      -0.21399103      -0.40686977       0.10027444       0.08886099      -0.10361474      -3.72347462
42
Properties=species:S:1:pos:R:3:original_dataset_forces:R:3:LES_q:R:1:LES_BEC:R:9:forces:R:3:energies:R:1 original_dataset_energy=-191.9940643310547 energy=-191.88589799184263 stress="inf inf inf inf inf -inf inf -inf inf" pbc="F F F"
O        1.44651532       4.24107075      -1.89111459       1.52058208      -0.81370538      -0.65120041       0.26910546       1.06872125       0.27465649      -0.49784168      -0.05698465       0.72549715      -0.10530515      -0.37554242      -0.25329367       0.59560729       1.51477268      -0.80949112      -0.67043190      -4.66335768
O        1.30895603      -3.62643719       0.94863951      -0.58975643      -0.50804180      -0.18334487       0.35026038       0.65172233       0.27932531      -0.08811371       0.26625606       1.59454420       0.13216801       0.08197964       0.22523935       0.78213992      -0.60351529      -0.51176452      -0.15479793      -4.59881015
O       -1.56849039      -1.65108395       0.03092086      -0.21410924      -0.13032879       1.70884275       0.20523544       0.57906737       0.20633656      -0.02156698       0.23009493       0.46121474      -0.14637310      -0.26213129      -0.27023791       1.62254600      -0.22661213      -0.13278561       1.77707827      -4.77114166
O       -1.26488471       1.61158550       1.13234377       0.31303799      -0.33538604      -0.49537092       0.27913389       0.98171785      -0.48307367      -0.26650078      -0.27936829       0.84764394      -0.08302853      -0.36185788       0.03354441       0.61435366       0.32431072      -0.34248467      -0.48154451      -4.69773342
O        2.64869213      -1.85005593       0.94407582      -0.97503245       0.11288019       0.52223587       0.36825433       1.15107831       0.39637499      -0.23986810       0.24108161       1.00220136       0.01347816      -0.29884445      -0.18847965       0.75589144      -0.96044009       0.11310021       0.51457733      -4.55302611
C        0.37590331       4.28912163      -1.34609818      -0.46926531      -0.02927836       0.04338275      -0.06505652      -1.20249837      -0.30361581       0.70973101      -0.10068143      -1.43717097       0.56173705       0.64567724       0.60448496      -0.62749343      -0.47381745       0.01116234       0.10641570      -5.86126274
C        1.65118611      -2.52665854       1.39085639       1.33549941       0.04038545      -0.79064018      -0.04178746      -1.17787372      -0.77475431       0.56685203      -0.57931516      -1.77430151      -0.30839255       0.54948574      -0.43757344      -0.71483139       1.30903929       0.14590109      -0.84093100      -5.64112130
C       -1.38122284      -1.72156978       1.26798654       0.52661705       0.94480538      -2.01645494      -0.08016979      -0.80457136      -0.62342402       0.18728220      -0.58547622      -0.63132875       0.40743096       0.24136696       0.41791218      -1.65145893       0.56536575       0.95390654      -2.06740914      -5.59032852
C       -0.24653301       1.17587817       0.59659386      -0.72005063       0.92278010       0.65104747      -0.06902289      -1.10578998       0.78742308       0.36707083       0.55001162      -1.24137759       0.33118423       0.38370248       0.26686058      -0.60355759      -0.72425300       0.89245934       0.64088270      -5.72052635
C        2.24168539      -0.41625205      -1.89634240      -0.82225472       0.10374892      -0.19159062       0.02299710       0.00605189      -0.17268944      -0.11766268       0.16658806      -0.23565041      -0.04048362      -0.04953962       0.03171564      -0.04930126      -0.85415503       0.15774942      -0.18247549      -5.40838510
C        0.89137864      -0.16389579      -2.03676844       1.35045445       1.51838446       1.22114384      -0.03658136      -0.40351656       0.10137414       0.11503573       0.00888119      -0.30158761      -0.06823510      -0.05295473       0.03595826       0.13350251       1.34022897       1.52249077       1.22595278      -5.57004458
C        1.13281262      -2.32898617      -1.80270636      -0.38366109       0.67526323       2.21695948      -0.05216455      -0.55140987       0.04280844      -0.14755913       0.10553829      -0.19034406       0.08358451      -0.00999061       0.07470132      -0.19453145      -0.43068571       0.66236878       2.29585726      -5.67868849
N        2.35417271      -1.78155136      -1.71310294       0.05367123       0.10641275      -0.17495628      -0.02925325       0.47186273      -0.01980657       0.08513863      -0.04602907       0.15293105      -0.00032836       0.09228380      -0.00829252       0.19081414       0.09970017       0.08195264      -0.11573804      -4.83674882
N       -2.15998077      -2.45247698       2.06514454      -0.06062288      -0.37542012       0.21626803       0.06502902       0.67469492       0.49042237      -0.30565986       0.47805306       0.54249358      -0.38908566      -0.00582740      -0.12595405       0.64647977      -0.02184277      -0.38784372       0.18423314      -4.88614350
N        0.38901412       0.08122337       1.00937831       0.84639627      -2.37495899       0.19487685       0.09279302       0.53713884      -0.25522400      -0.10257246      -0.27353522       0.96909855      -0.33127997       0.05994206      -0.43330103       0.47713716       0.86286429      -2.40918236       0.17591355      -4.68190568
N       -0.17347303       3.25216150      -0.65075463      -0.11020880       0.23628268      -0.35319313       0.10761696       0.49281420       0.10264405      -0.28295776       0.23703857       1.12853632      -0.36974574      -0.34652975      -0.34199842       0.56559895      -0.15246323       0.28234060      -0.32397453      -4.52573584
N        0.21377712      -1.33689153      -1.89143443       1.03972936      -0.89400083      -0.85776174      -0.05212229       0.54576202       0.02886839      -0.03482791      -0.05242880       0.27509342      -0.10584757      -0.06134276       0.00058696       0.10930888       1.10285582      -0.87780227      -0.87722474      -4.87592733
C       -0.38344193       5.57890654      -1.41535389      -0.04795070       0.38053054      -0.01568561       0.09139953      -0.01631959      -0.16056035      -0.02346702      -0.13266715       0.09570844      -0.01880935      -0.02637017      -0.07467571      -0.09759470      -0.03573703       0.38421884      -0.04815363      -4.49982593
C       -3.35278606      -3.14280748       1.57842076       0.43748513      -0.47006097      -0.66179311       0.07839269      -0.28597020      -0.05563100      -0.12170756      -0.20445603      -0.28907872       0.00097801      -0.13773728      -0.08598958      -0.15101946       0.42318314      -0.46002049      -0.63212917      -4.82567411
C        0.81085813      -1.90147042       2.50007153       1.52024746       1.55267513       0.54179251       0.06478305       0.02454533      -0.05691779      -0.06139810      -0.02523346      -0.03268562       0.10515318      -0.18144482       0.16067090       0.04116000       1.54527994       1.52720309       0.54350020      -4.63006142
C        0.24951553       1.17876577      -1.89999068      -0.40958965       0.32906720      -1.31065428       0.05950399      -0.07214173      -0.04148760       0.05000609      -0.05866109      -0.03932386      -0.01570793      -0.03260019      -0.05869411      -0.07820389      -0.35710934       0.37467494      -1.31244363      -4.74336823
C       -0.21782771      -0.91694361       1.93882835      -0.07688278       0.12745482      -0.83753186      -0.02145286      -0.25443630      -0.04647972      -0.00957997      -0.03385534      -0.51715320       0.37836261       0.01944114       0.28286117      -0.37808234      -0.09909389       0.03117250      -0.79227364      -5.04833615
C        0.42242432       1.92496979      -0.56011665      -0.18099678       0.55090714       0.39662001      -0.02990753      -0.15975268       0.16469900      -0.13749776       0.04628684      -0.53811711       0.01904690      -0.06977448       0.01785634      -0.25131119      -0.15764425       0.51298974       0.32663770      -5.15121668
H        3.06270123       0.31167620      -1.85237503      -0.50493652      -0.78134567      -0.05607293      -0.07826792      -0.02384917       0.03972213       0.01552476      -0.04816697      -0.03606854       0.06221111       0.02778232       0.01391587      -0.11452111      -0.47635015      -0.78019527      -0.06638621      -4.17414891
H        0.89983499      -3.26253319      -1.31635690       0.07710727      -0.31678057      -0.40536782      -0.05758125      -0.09136924       0.03808616      -0.01893817       0.02658101      -0.13040180      -0.01586709      -0.03731113       0.01937823      -0.21989436       0.04049680      -0.40869868      -0.45118993      -4.11384997
H        3.07476187      -2.16714358      -1.05907154      -0.77024168      -0.03118339      -0.59822810      -0.18295142      -0.31200365       0.07612861       0.05004402       0.02984785      -0.18911159       0.00539861      -0.10027818       0.08767988      -0.41872558      -0.76490762       0.00507935      -0.64212005      -3.68978944
H       -1.88797057      -2.58930492       3.03153467      -0.14498065       0.19843479      -0.43251318      -0.19712628      -0.20621591      -0.03308829       0.04392126      -0.00109514      -0.20299742       0.03377045       0.03530996       0.05491143      -0.29823814      -0.16050357       0.18873838      -0.43025033      -3.59622380
H        1.26996958      -0.24050733       0.56178892      -0.80842936       0.34825543       0.53902024      -0.17385587      -0.37814246       0.15514143      -0.02414005       0.07618638      -0.19971794      -0.03880606       0.00561606      -0.03780012      -0.19831054      -0.83654152       0.34522044       0.51037461      -3.69413955
H       -0.99470890       3.46140242      -0.11658031      -0.25443912      -0.51025093       0.19800016      -0.18662243      -0.23471891      -0.08091914       0.07719349      -0.02548886      -0.27671540       0.02871063       0.05498511       0.06399073      -0.26089096      -0.20652894      -0.51509465       0.20771891      -3.60449589
H       -0.76596779      -1.42106628      -1.55467844       0.72555017      -0.11777012      -0.15458933      -0.14037623      -0.38096997      -0.12421660       0.16827005      -0.07069940      -0.14086133       0.03080747       0.19209356      -0.05438671      -0.64708257       0.70322001      -0.15998704      -0.14271931      -3.90833094
H       -1.43815255       5.43793774      -1.20028281      -0.04816512       0.36643338       0.13973670      -0.05351626       0.08761816       0.01594754      -0.02428475       0.00977957      -0.05240408       0.00087777      -0.02712767       0.00307239      -0.01277826      -0.05270721       0.36058090       0.13955653      -4.04446509
H        0.12767619       6.23348475      -0.70476145      -0.47791481       0.06238034       0.14133419      -0.04966186      -0.00362474       0.08076978       0.02205984       0.01102490       0.13435390       0.03090257       0.02043529       0.06512683       0.02299661      -0.48271364       0.05617597       0.15247083      -3.90820573
H       -0.23245251       6.06586885      -2.39591742      -0.16723357      -0.58430594       0.44513035      -0.04578581      -0.01130508      -0.00868319      -0.00294263      -0.01452426       0.13539519      -0.08706729       0.01047693      -0.08416810       0.07679347      -0.17024743      -0.58985822       0.42931627      -3.99621119
H       -4.20646858      -2.50295496       1.67923200      -0.51083291       0.29021049       0.04541306      -0.05947618       0.10369976       0.02424441      -0.00346677      -0.02063176       0.02061737       0.00880567       0.00332518       0.00717487      -0.02349935      -0.50516477       0.28226313       0.02143393      -3.98620731
H       -3.27021265      -3.43992519       0.51563323       0.28392634       0.42341596       0.64861453      -0.03812472      -0.02292848      -0.02478291       0.02865220       0.03299041       0.02450789       0.00772423       0.05635821       0.05813479       0.05224159       0.26186812       0.43404667       0.62660838      -3.96318328
H       -3.51797342      -4.05890036       2.13172722       0.07501712       0.00524459       0.26617840      -0.05759600       0.01432003       0.03966299      -0.00053670       0.08929994       0.09394397      -0.04413187      -0.02182271      -0.04048640       0.00329834       0.07125174       0.01073806       0.29500875      -3.97864117
H        0.34083945      -2.62193108       3.13466120      -0.44244471      -0.65080220      -0.03767576      -0.05184463       0.05254322       0.05351889      -0.09466853       0.00984540       0.09666576      -0.08416657      -0.05463024      -0.07570530       0.10295065      -0.47161106      -0.62490472      -0.04621145      -3.97081315
H        1.49951804      -1.35385919       3.18638897      -0.46128923      -0.15894616      -0.65640318      -0.04807869       0.05297354       0.00711214       0.06793610       0.01279017       0.03732157       0.02522458       0.05050331       0.02442855       0.09389158      -0.48320717      -0.14415216      -0.65889243      -3.87767319
H        0.61462915       1.88012230      -2.67443943      -0.08024406      -0.51077455       0.33429971      -0.04804030      -0.00496813      -0.03778305      -0.01127097      -0.00250824       0.03607734      -0.07097451      -0.00284632      -0.02670430       0.04262826      -0.09440784      -0.50450656       0.34724237      -3.97024768
H       -0.81110609       1.01617515      -2.12128639       0.02564311       0.39901039       0.30574539      -0.05918478       0.07242187      -0.00126875       0.04666941       0.02451282       0.00774687       0.01908730       0.05008125       0.03697314       0.01605534       0.03960784       0.39341606       0.28261419      -3.92050631
H       -0.62282324      -0.35298899       2.75148535      -0.48645097       0.28667364       0.45583519      -0.05630638       0.06856982      -0.03152784      -0.00230452      -0.03901945       0.05955888       0.00840856      -0.07759347      -0.00065031       0.04487396      -0.47172972       0.30053624       0.49062500      -3.83135985
H        1.46964896       2.08784342      -0.29618058       0.08559658      -0.39420694      -0.34259912      -0.05673145       0.06705255      -0.06933283       0.03994689      -0.00186273       0.01524591       0.02858346       0.01325134       0.01121254       0.00105686       0.06994458      -0.37171400      -0.35672135      -3.87364290
46
Properties=species:S:1:pos:R:3:original_dataset_forces:R:3:LES_q:R:1:LES_BEC:R:9:forces:R:3:energies:R:1 original_dataset_energy=-202.07582092285156 energy=-202.044837957987 stress="inf -inf -inf -inf inf -inf -inf -inf inf" pbc="F F F"
O        4.79965353      -0.04334599       1.41780972      -1.59108603      -0.66402996       0.59283912       0.29666170       1.17951466       0.28115703       0.08314896       0.44817525       0.69978475      -0.21648307      -0.15743187      -0.32295289       0.65407747      -1.59017468      -0.66546323       0.59497493      -4.59805614
O       -2.64003968       1.50945497      -2.75490499       0.05259052      -1.11874247      -0.36082855       0.36711147       1.62858836      -0.24231907       0.40825165      -0.41453217       0.86885475       0.13348690       0.06086321       0.19265247       0.70631705       0.02734294      -1.09355024      -0.39403042      -4.47450340
O       -2.10280442      -0.34219006      -0.19023192      -0.03276790      -0.38141513       0.11014713       0.16067867       0.66342533       0.18249116      -0.07029854       0.48286629       1.56751591       0.37125620      -0.02372462       0.48492358       0.63907259      -0.01190613      -0.44386243       0.11504793      -4.86333378
O        0.87912607      -2.41427159       0.00022775      -0.12366257      -0.39354894       0.29471505       0.27894562       0.54322281       0.20490729       0.10345862      -0.00556929       1.20920301      -0.34968031       0.25462314      -0.32383093       0.68613802      -0.09358168      -0.38090929       0.25723524      -4.65595927
O       -0.49456167       1.68370366      -2.46869040       1.56798744      -0.20023669       0.16121741       0.30650908       1.28350784       0.04093066       0.19000190       0.30095655       0.96069836       0.17180048       0.31455764       0.16243864       0.68550243       1.57568212      -0.25474638       0.13750522      -4.72238935
C        3.95064878      -0.78907448       1.94401646       3.10899591       0.62013119      -0.33701435      -0.05738764      -2.05116040      -0.41294742      -0.49721125      -0.55133633      -0.62780757       0.40049623      -0.35095368       0.45883314      -0.81986840       3.10229636       0.63601325      -0.34673610      -5.79488790
C       -1.48263121       1.00945306      -2.82401705      -1.07277095       1.04906809       0.51683921      -0.07098868      -2.10331599       0.13038019      -0.39498056      -0.06475295      -1.23172300      -0.51162478      -0.29710808      -0.25225186      -0.43288347      -1.06057777       1.15598410       0.59443936      -5.54742005
C       -1.98633277      -1.30507636      -0.95203727       1.07325876       1.06286633      -0.13462482      -0.07997621      -0.85788020      -0.52675488       0.26959392      -0.71373296      -1.59310706      -0.48692494       0.21021050      -0.55289815      -0.67771847       0.97983901       1.10790128      -0.08938643      -5.66916059
C        1.11286294      -1.30192113      -0.44495475      -0.25163165      -0.88463515       1.13131225      -0.07332359      -0.71456727      -0.18701088      -0.53331497       0.01369064      -1.33779883       0.54374613      -0.62980855       0.61117044      -0.91978482      -0.16912234      -0.97694758       1.20422573      -5.69980770
N       -2.81816459      -2.33482361      -0.93975097      -1.06235051      -1.23268914       0.13078381       0.07315130       0.73211305       0.56687505      -0.12924046       0.37835276       0.79589219       0.18428215      -0.24889696       0.04777443       0.34892034      -1.06845283      -1.21624306       0.08738347      -4.80389779
N        0.42136374      -0.79091996      -1.46867085      -0.08878791       1.48182440      -0.51752049       0.09366380       0.68435555      -0.06329706       0.45763767       0.02144188       0.59025893      -0.13931471       0.49779213      -0.38295822       0.70077557      -0.14469807       1.56233686      -0.55126524      -4.73958279
N        2.73218632      -1.00608087       1.45198512      -2.11794591      -0.86497766      -0.58203954       0.07189023       1.20259688       0.14969821       0.40944835       0.16134968       0.42296618      -0.15312924       0.54952657      -0.13170883       0.56989706      -2.12445221      -0.85341613      -0.58027318      -4.71801805
C        4.33428288      -1.61522031       3.19073462      -0.52406353       0.04526689      -0.97752327       0.09572587       0.01017782      -0.02483271       0.08917243      -0.02994553      -0.01502130      -0.16917455       0.03162729      -0.14246384       0.05611082      -0.50537371       0.04142559      -0.98741130      -4.41171749
C       -3.83714914      -2.52417922       0.13344443       0.69250607      -0.21402082      -0.57790804       0.07418050      -0.38341380      -0.10700966       0.15266930      -0.04134159      -0.16611546       0.02421337       0.04066177      -0.05046469      -0.31423130       0.70139751      -0.26805683      -0.54044264      -4.77780966
C        0.51120687       1.12007165       1.37008095      -0.12681061       0.49634877      -0.13208154       0.11372349      -0.16427123       0.00663635       0.01982580       0.00479610      -0.18732022      -0.05976434       0.03740991      -0.03652907      -0.10840184      -0.11132171       0.48679163      -0.16889875      -4.74245275
C       -0.12516797       2.53280163       1.46016860       0.58425099      -0.36687776      -1.27787745       0.09561637      -0.04244969      -0.03970500      -0.01498849       0.05090263      -0.18309135       0.11626221      -0.01106761       0.05652715      -0.12418267       0.60083931      -0.33782812      -1.23393311      -4.73192262
C       -1.23389506      -0.45494926      -3.23451948      -0.05779948       0.21705076       0.23540702       0.06193676      -0.06138797      -0.03221400       0.06598725       0.01447171       0.11312111       0.14258301      -0.01442901       0.11754660      -0.04735632      -0.06335054       0.20568327       0.20227633      -4.55899973
C        1.72195113       1.02802491       0.41147327      -0.68389446      -0.51655149       0.37292409       0.08763682      -0.10859304       0.01199201       0.06252533       0.05542315      -0.06044320       0.00302855       0.07494891       0.00222252      -0.10783408      -0.66592744      -0.52860300       0.44963623      -4.77250506
C       -0.68403804       3.13534260       0.12682664       0.31993201       0.19133858       1.24059308       0.02965987      -0.45199132      -0.06713160      -0.08718419      -0.13138803      -0.06000349      -0.04413760      -0.06493927      -0.09235834      -0.29609480       0.33339015       0.28886090       1.23889124      -4.74068446
C       -0.83368623      -1.32235599      -2.00667024       0.61425680      -0.54025036      -0.25577942      -0.01138137      -0.54518867      -0.15850298      -0.29293155      -0.09527518      -0.16868650       0.06182744      -0.21665459      -0.00211413      -0.44613154       0.71444100      -0.59267668      -0.18926388      -4.97646499
C        2.19816995      -0.43299106       0.20249099       0.94065225       0.92515457      -0.41660890      -0.01519124      -0.18520697       0.10800047      -0.09346258       0.07608291      -0.24440802       0.16408760      -0.22720428       0.16271989      -0.40595347       0.96836157       0.88578863      -0.43959646      -4.99702755
N       -1.98766971       2.49099231      -0.26761755       2.02610111      -0.75910383      -0.53115320      -0.02057635       0.45195842      -0.04909117       0.06596104      -0.03444234       0.44418584       0.05035463      -0.02104858       0.11320354       0.44047357       1.97980294      -0.66515238      -0.62766301      -3.59215926
H       -2.70615339      -3.06217837      -1.64416921       0.05460559       0.40952680       0.61157411      -0.19628510      -0.21325704      -0.00851386      -0.01907082      -0.07799462      -0.30099203      -0.07999211      -0.04539497      -0.07964947      -0.23612576       0.00945841       0.44607251       0.58198386      -3.61455656
H        0.61515570       0.18376112      -1.73178470      -0.48633161      -0.50912005      -0.01089993      -0.17029482      -0.16498379       0.09474607       0.03515272       0.11516178      -0.40157240       0.12570067       0.03159377       0.10042391      -0.12457738      -0.47075104      -0.53373278      -0.01519601      -3.58229502
H        2.18657374      -1.77233481       1.85542154       0.28903690       0.56100923      -0.43256423      -0.19433793      -0.29998150      -0.04923915      -0.01116673      -0.07361495      -0.24363774      -0.02659607      -0.01618627       0.02638132      -0.21454756       0.26314448       0.60776715      -0.42264641      -3.58834533
H        5.40319490      -1.81337595       3.20579243      -0.07601270       0.21406358      -0.22676963      -0.04668287       0.13951658      -0.05784703       0.06674297      -0.03038749       0.00251506      -0.01356824       0.04803067      -0.02509315       0.02567534      -0.07658140       0.20566080      -0.22603273      -4.03290501
H        4.08818579      -1.03959405       4.07946110      -0.24763840      -0.30435419       0.11375917      -0.05360063       0.00228568      -0.01995401       0.00967932       0.02059843      -0.01360114       0.06972804       0.01989218       0.02543856       0.10357120      -0.25599902      -0.29740742       0.11675727      -4.03525955
H        3.81213093      -2.57565713       3.09299612       0.03751862       0.25124514       0.66576320      -0.05028585      -0.01002772       0.04835759      -0.01273366       0.04111504       0.06432166      -0.00015184      -0.02006860       0.01010118      -0.03596620       0.03993669       0.24789754       0.66694584      -3.98087543
H       -4.57123184      -3.28654099      -0.14421064       0.23098347       0.34879145      -0.23650229      -0.05773859       0.09313644       0.08489414      -0.00766025       0.07906864       0.03910446      -0.00134935      -0.01051605      -0.00108833      -0.01139874       0.23407489       0.32732584      -0.23592748      -4.01250522
H       -4.31280136      -1.58375692       0.35356390      -0.20428629       0.22736107      -0.12663028      -0.04530727       0.01756258      -0.01769457      -0.02304320      -0.09853630       0.00549051       0.03707139       0.04332068       0.07002823       0.01858172      -0.18831831       0.23730883      -0.11741529      -4.01543718
H       -3.35207081      -2.86664939       1.04224682       0.16385181       0.00399154       0.05554448      -0.05518143       0.01008654      -0.01206156       0.02126388       0.02555681       0.00019011      -0.02141673      -0.01428086      -0.03662358       0.06596741       0.14118396       0.02019158       0.06929038      -3.98492524
H        0.82296288       0.79760081       2.36746573       0.01757668       0.27097449      -0.05312984      -0.05838313       0.03405899      -0.02636471       0.01523317      -0.05009148       0.02743527      -0.08484893       0.00598079      -0.06138517       0.11797355       0.02020936       0.24949982      -0.04547804      -3.96397919
H       -0.31080359       0.46726722       1.12536812       0.06722355      -0.62336570      -0.52375835      -0.03892582       0.05680494       0.02228193      -0.06029828       0.02540115       0.03618018      -0.00901928      -0.04842173       0.00962217      -0.04287334       0.08334350      -0.61157918      -0.48539724      -4.02621323
H        0.65405989       3.18527412       1.81795502       0.01044643       0.57552928       0.21711460      -0.06594490       0.04350861       0.00153660       0.03819009       0.02368335       0.05600785      -0.00558127       0.05691471      -0.01471677       0.03992756       0.01623989       0.55433683       0.22549986      -3.91281073
H       -0.92488313       2.48067212       2.16686964      -0.45023522       0.19250198       0.68292201      -0.06211447       0.09217852      -0.08614513      -0.07879897      -0.04326505       0.03641659      -0.01371041      -0.03780802       0.00890253       0.06341188      -0.46143072       0.15883675       0.66361749      -3.92967095
H       -2.17810869      -0.84881938      -3.61015487       0.31246045      -0.05468128      -0.38104895      -0.06122244       0.07551518       0.04387600       0.08961791       0.02633265       0.02755648       0.02989733       0.10499518       0.04947876       0.13138975       0.30883107      -0.04536367      -0.39977598      -3.99168190
H       -0.39782110      -0.44572428      -3.96896076      -0.78682488      -0.30175897       0.40984052      -0.05194284       0.01108617      -0.02167822      -0.20252504       0.01015981       0.01521680       0.06418717      -0.01256540       0.01392874       0.17856978      -0.77025054      -0.30784745       0.38319488      -3.98566701
H        2.55125690       1.59649825       0.82933700       0.01875491       0.02011250      -0.15641929      -0.05484208       0.09041267       0.10331676       0.00633242       0.03519625       0.04193638       0.02963174       0.01672190       0.05926143       0.01138361       0.00750303      -0.00590044      -0.15871314      -4.02321704
H        1.44809401       1.44568992      -0.55703366       0.20650853       0.08630121       0.06724613      -0.04737461      -0.00099890       0.00874255      -0.00756722      -0.08174669       0.00611013      -0.03349376      -0.01341360      -0.07437146       0.04818357       0.16507567       0.09769879       0.04464895      -3.98165441
H       -0.92280912       4.21504927       0.29192114       0.39152682      -0.88617408      -0.30386218      -0.06375858      -0.00512802      -0.01863316       0.01983410      -0.01645026       0.07739895      -0.02048492       0.01152771      -0.00048729       0.01198114       0.40216621      -0.93449034      -0.34389162      -3.91977978
H        0.04514468       3.00130868      -0.68175578      -0.68955439       0.15721263       0.14476213      -0.04632269       0.02179072      -0.13804202      -0.06945180       0.01211202      -0.11397551      -0.08613937      -0.06918589      -0.04082859      -0.08443693      -0.70260679       0.17620681       0.07706272      -3.96489883
H       -0.62318921      -2.37263656      -2.33332491      -0.42039618       0.82058400       0.27727512      -0.05268610       0.06595542       0.00701046       0.02779829       0.01366704       0.14835190      -0.05935990       0.02275274       0.01464815       0.05014145      -0.40386641       0.83031311       0.27299219      -3.88658603
H        3.02159142      -0.41255447      -0.53865403      -0.20296945       0.08915912       0.47890931      -0.05512562       0.01063965      -0.03305499      -0.08851461      -0.00447312       0.02351083      -0.00600058       0.03566484      -0.00593889       0.05870208      -0.20908745       0.09550358       0.48551503      -3.81449356
H       -1.94748712       1.45381379      -0.18569505       0.05022380       0.13472265       0.05764408      -0.09411314      -0.20103347       0.08074000      -0.00303374      -0.08465704      -0.65991530      -0.00743668       0.05855813      -0.02327974      -0.13478139      -0.01373396      -0.02023468       0.08693021      -3.70467315
H       -2.11246705       2.59124088      -1.29439163      -0.62916219       0.00566989      -0.19846086      -0.11604182      -0.30400073       0.07654917      -0.07992162       0.09150715      -0.36989417      -0.09555042      -0.05346110      -0.09505255      -0.56849523      -0.61806273       0.03585033      -0.19529945      -3.51235116
H       -2.72383809       2.82920122       0.30454230      -0.90077335       0.36032772       0.18845809      -0.18167910      -0.27516176       0.14492516       0.06987144       0.11546369      -0.30110996      -0.02870781       0.07639521      -0.04918148      -0.25910135      -0.89493258       0.37275552       0.23861956      -3.50406747
42
Properties=species:S:1:pos:R:3:original_dataset_forces:R:3:LES_q:R:1:LES_BEC:R:9:forces:R:3:energies:R:1 original_dataset_energy=-190.39324951171875 energy=-190.50758907691377 stress="inf inf inf inf inf -inf inf -inf -inf" pbc="F F F"
O       -0.62402862      -1.77041280       3.59451628       0.25338444      -0.55799162       0.02852764       0.28237993       0.42439854       0.25227074      -0.27374214       0.28060446       1.10939361      -0.48767605      -0.15239087      -0.16574563       0.97543618       0.24410187      -0.54877639       0.06213011      -4.65243390
O        0.54410994       1.79625988       0.42189884       0.31675714       0.14336188      -0.64981461       0.29779515       0.66404622      -0.06161121       0.03581842       0.05177948       0.64629807      -0.16440568      -0.14587288      -0.03543290       1.62354773       0.32306896       0.06372961      -0.50999883      -4.77723854
O       -3.77867126       0.22523886      -1.02324438       1.07820237       1.11842811      -2.60157323       0.28969190       0.73350289       0.10276342      -0.32443340       0.05429358       0.42442166      -0.31076946      -0.01220787      -0.27258460       1.18541616       1.09629910       1.12577131      -2.68180225      -4.64606922
O        0.61599386      -1.49438155      -1.37445474      -0.32707083       0.49038094      -0.26734412       0.27808097       0.94219475      -0.34370372      -0.18774733      -0.25868784       0.57140776       0.03837129      -0.35246608       0.24619396       0.89785744      -0.15122917       0.47541346      -0.22796538      -4.62285892
O        1.54269278       1.62472248      -1.59669542       0.61610234      -0.12202808       0.62903821       0.32348576       1.18460479      -0.03905834      -0.51822132      -0.08803939       0.57893025      -0.13496362      -0.37051080      -0.24554630       1.26342544       0.53494910      -0.20991615       0.72646764      -4.70565370
C       -0.23986536      -0.71185189       3.13331366      -0.49017146       1.07749557       3.49875617      -0.04257759      -0.22575189      -0.40011459       0.42106226      -0.40100246      -1.21686258       0.48206630       0.33084765       0.28270963      -1.95743553      -0.50345069       1.05353043       3.32385043      -5.78904676
C        0.55769432       1.77023673      -0.84023869      -0.82124335      -0.63409871      -0.20195185      -0.03581108      -1.52070329       0.21763340       0.22816160       0.15250668      -0.17008571      -0.07070532       0.30081598      -0.06991488      -2.03184793      -0.64679047      -0.61808590      -0.33258221      -5.56506141
C       -3.05504608       0.59034586      -1.99293470       0.75296980      -1.45029747       3.69453764      -0.06595554      -1.04361691      -0.00883933       0.04057248       0.04216187      -0.21226265       0.54891521      -0.25756945       0.56027143      -1.87862138       0.67471380      -1.33307967       3.67279208      -5.51708239
C       -0.14754993      -1.11800325      -0.48606819       2.10575795      -0.24983887      -1.77229369      -0.08104078      -1.32348135       0.72796868       0.19302901       0.72272117      -0.52291561      -0.00649566       0.25742987      -0.15466992      -1.05292421       1.97558506      -0.23982385      -1.86290187      -5.52735656
C        4.16751146      -1.53979468       1.18510485      -2.49524617       1.68478823       0.77157569       0.00673267      -0.10847399       0.00958786      -0.01891343      -0.11408968      -0.19275947       0.05327318      -0.03404228       0.14237333      -0.05417741      -2.25414375       1.58381413       0.78484944      -5.32857788
C        2.82117033      -1.21522212       0.99989295       0.06243229      -2.47358274      -0.66854388      -0.02818485      -0.47645836      -0.07813088      -0.03710133      -0.10134220      -0.19691397       0.05292667       0.05985476       0.05572745      -0.06550398      -0.07871100      -2.37737535      -0.75035772      -5.42558940
C        3.97718191       0.47369027       0.17259246       0.70620775      -0.22102183       1.47143996      -0.06755786      -0.92951261       0.03435910      -0.14614670       0.11285999      -0.14081383       0.11837767      -0.20492708       0.07397442      -0.18024840       1.01729491      -0.19775578       1.49844432      -5.96915108
N        4.82815981      -0.34275422       0.83729732       1.92075598      -0.96581393      -0.48013464      -0.02832108       0.75693845      -0.04620457       0.15796721      -0.15406817       0.08283484      -0.08975838       0.07045019      -0.06159538       0.04098909       1.76895442      -0.88722310      -0.45076295      -4.75622757
N       -3.46297407       0.90128541      -3.20894480       1.40482581       0.01685649      -0.31088895       0.03855515       0.89418969      -0.14410164       0.57846959       0.03944116       0.14545105      -0.21614401       0.23832723      -0.29124178       1.01463604       1.29439291      -0.05441755      -0.28882268      -4.92952701
N       -1.25536251      -0.38648093      -0.69484556       0.01315591      -0.79742211       0.59150952       0.08860400       0.96234707      -0.44294462       0.13167596      -0.54285381       0.68642581      -0.23953981       0.26500960      -0.22784143       0.56336898      -0.06589844      -0.79257529       0.56834151      -4.48010306
N        0.03433645      -0.48181087       1.89091885       0.51345843      -3.17787695      -2.43605566       0.06151701       0.24726290       0.01314404      -0.22128610       0.02346835       0.68484481      -0.28074947      -0.20983561      -0.13231703       1.37378837       0.50250099      -2.92714817      -2.41726747      -4.67469880
N        2.76857042      -0.00896031       0.34979051      -0.62311935       0.19102061      -1.47641861      -0.06327544       0.94400129      -0.06983838       0.12972460       0.06803290       0.22990495      -0.14146181       0.20038454      -0.22706245       0.12374481      -0.59907320       0.06452992      -1.30941471      -5.01812541
C        0.01221454       0.52929747       4.06615973      -1.81995845      -1.43680859       0.22578511       0.10124061      -0.09233145       0.04602135      -0.01198872       0.04514154       0.07409908       0.13464723       0.01442670       0.09773447      -0.01355416      -1.88714223      -1.41051427       0.27846065      -4.28908855
C       -4.82009983       0.79550660      -3.49673414      -3.23080802      -0.25493979      -0.68777794       0.08160573      -0.84543085       0.06730399      -0.40772899      -0.18417800      -0.10449036      -0.12593886      -0.08245320      -0.01328201      -0.16938627      -3.04013353      -0.27151641      -0.65718794      -4.77501750
C       -0.80556422       1.80337977      -1.54786491      -1.02749753       0.81431252       1.11657059       0.08780322       0.20116583       0.01471262       0.06148546       0.00039376      -0.21938964       0.03529434       0.12892206       0.04645780      -0.00789875      -1.04165958       0.83909518       1.06026929      -4.55676422
C        1.61998379      -2.22195768       1.12611032       1.38243508       1.88682520      -2.00993919       0.06259415      -0.19373322       0.10831489      -0.02821095       0.04410740      -0.08675094      -0.00663200      -0.09629731       0.09972121      -0.13880583       1.29095205       1.84080477      -2.04787702      -4.72251556
C       -1.51596868       0.49684155      -1.82866466      -0.54638427       0.02678666       2.49008918      -0.01034649      -0.07472946       0.04226071      -0.09779311       0.10687376      -0.40943182       0.20941080      -0.08292382       0.12784001      -0.29470986      -0.56288402       0.05419332       2.64789647      -5.16417552
C        0.25208384      -1.55243206       0.90194631      -0.96982378       0.37060136       1.45484984      -0.02808905      -0.31168253       0.22374419      -0.04618758       0.05572702      -0.57518728      -0.09177037       0.04179453      -0.22860115      -0.19763687      -0.98270961       0.39508274       1.53295926      -5.10933501
H        4.49863052      -2.50169182       1.60291326       0.50712979       1.18832612      -0.16780563      -0.07673027       0.04630348      -0.07308154       0.04010907       0.05203066       0.00051486      -0.01771555       0.12403334      -0.08930007      -0.02416247       0.46766897       1.14986760      -0.20620247      -4.17672011
H        4.21536160       1.36618221      -0.38743466      -0.06510159      -0.07786548       0.31309301      -0.07851969      -0.07022291       0.01301304      -0.01865557       0.02163006      -0.03651857      -0.02769390       0.14235379      -0.00202803      -0.06089517      -0.11036194      -0.09187224       0.25814615      -4.12515034
H        5.83469725      -0.16104600       1.05762529      -1.59912860      -0.18469524      -0.79192680      -0.19459829      -0.45141067      -0.02142107      -0.04626474       0.03589970      -0.19600863       0.00229559      -0.11441728      -0.00396772      -0.20868308      -1.55929698      -0.17940108      -0.78171573      -3.68910170
H       -2.83751678       1.32337427      -3.91124105      -0.49686337      -0.66089100       0.94865376      -0.20475024      -0.19374011      -0.01921518       0.03833047       0.00449929      -0.22238305       0.05867560      -0.00080615       0.03709974      -0.27724620      -0.55239548      -0.67917067       0.95302016      -3.59901460
H       -1.92811310      -0.44460040       0.03734684      -0.61426002       0.60594910       0.26551858      -0.18051955      -0.29666653      -0.00729642       0.02914707      -0.03066907      -0.17150441      -0.03153710       0.02540682      -0.02278265      -0.17756463      -0.57516354       0.65120001       0.27472669      -3.55298434
H        0.05616093       0.41410983       1.56495631       0.53019595       3.07765579      -1.17088127      -0.13180460      -0.15477071      -0.10621412       0.05675883      -0.10637418      -0.50156597       0.36060984       0.06631442       0.31313652      -0.28505545       0.52901327       3.00248485      -1.04534047      -3.76515495
H        2.00733519       0.43464684      -0.25556999       0.67369395      -0.35154361       0.84178084      -0.13565497      -0.35849367       0.12630194      -0.04854929      -0.07198187      -0.45683601       0.21486500      -0.16165829       0.17113730      -0.44949122       0.38879439      -0.21262388       0.71099541      -3.77432034
H        0.91984713       1.02050304       3.83550167       1.17957997       0.13798487      -0.00425966      -0.05364891       0.05638988       0.05137867       0.05984584       0.06353719       0.02715852       0.02965632      -0.01339243       0.01327361      -0.00602779       1.21057685       0.13334361      -0.01994509      -4.03960966
H       -0.06088430       0.08905673       5.08620453       0.26194569       0.79631299      -0.67563522      -0.04593015      -0.01731874       0.00032933      -0.00987209      -0.00025608       0.00192785      -0.03925278       0.00360948       0.00205319       0.14932450       0.31691190       0.80371197      -0.69729388      -3.99781788
H       -0.74528557       1.31303430       3.91910839      -0.07372528      -0.48254451       0.12410786      -0.04819137       0.02987682      -0.04933724      -0.02354487      -0.06240054       0.05627339       0.01007910       0.00524511       0.00738639       0.00718089      -0.08363708      -0.51100172       0.08691928      -4.00466171
H       -5.23729229       1.79088521      -3.39996719      -0.65540135       0.13098688      -0.32633266      -0.05494380       0.12887754      -0.02523490       0.06881627      -0.03902234       0.03505587       0.00296648      -0.02790287       0.02274506      -0.05129358      -0.65369579       0.15674008      -0.33424454      -3.90328711
H       -5.45088053       0.13939041      -2.80927896       1.55511200       0.74288470      -0.69685572      -0.03300450       0.14148006       0.00623438       0.03416387       0.07017907       0.01158541       0.01807286      -0.06997888      -0.01706962      -0.02550673       1.55043225       0.72471990      -0.69613178      -3.93545177
H       -4.95495081       0.41129875      -4.52009964      -0.08089043       0.30447933       0.34074697      -0.05712043       0.04826839       0.00442134       0.04141042       0.08647305      -0.02577881       0.08076193       0.12127778       0.00940340       0.11420682      -0.08970331       0.30097355       0.37927837      -3.95000706
H       -1.48650551       2.26599240      -0.83572781       0.08214889       0.59063220      -0.06710424      -0.05207742       0.05276184      -0.05524220      -0.00351012      -0.01485150       0.02259136       0.02925409      -0.03448155       0.04666730       0.02975124       0.05594222       0.55766651      -0.15614788      -3.74891147
H       -0.71834075       2.39081407      -2.42766190      -0.01413707       0.57625479      -0.81256253      -0.06314982       0.03067623      -0.03043101       0.05508215       0.00112211       0.07638380      -0.09039549       0.01335509      -0.05909660       0.06338996      -0.00938540       0.58336221      -0.79170164      -3.96523820
H        1.85050786      -3.02632952       0.42215216      -0.45127824       0.35396853      -0.28924698      -0.05286429       0.06629846      -0.02926145      -0.01293189      -0.01236581       0.08729395       0.08514842      -0.01099594       0.08190610       0.00891914      -0.39912278       0.35885376      -0.26029010      -3.95973444
H        1.68865478      -2.70121074       2.06018639      -0.34368771      -0.12362345       1.42508590      -0.06060718       0.06533067      -0.04637705       0.05336893       0.02905819       0.03732006      -0.07526807       0.02480026      -0.10498614       0.07475818      -0.26384526      -0.16189491       1.43590853      -4.02114129
H       -1.21781456       0.03589654      -2.68192530       1.43951082      -1.36900651      -2.43772125      -0.05912152       0.00088970       0.00680019       0.01951060       0.00242333       0.04146967       0.03603363       0.01198507      -0.00318346       0.12491712       1.45578612      -1.32253965      -2.52831578      -3.72517823
H       -0.47018415      -2.32304859       1.05406547      -0.60880035      -0.73517710       0.77506661      -0.05248910       0.06672380       0.02909559       0.00831956       0.01521716       0.02687274       0.04717185      -0.01151362      -0.00956258      -0.02598117      -0.58750587      -0.89217689       0.79881460      -3.64673878
51
Properties=species:S:1:pos:R:3:original_dataset_forces:R:3:LES_q:R:1:LES_BEC:R:9:forces:R:3:energies:R:1 original_dataset_energy=-224.3721466064453 energy=-224.3075510805104 stress="-inf inf inf inf -inf -inf inf -inf -inf" pbc="F F F"
O       -2.07636189      -0.19993728       3.28615999       0.35611174       0.26739407      -0.28070828       0.22612743       0.74222550       0.07895956      -0.35708995       0.31620100       1.33751832      -0.09328518      -0.25856204       0.15865414       0.65299036       0.35303893       0.30158664      -0.26650193      -4.80656108
O       -2.34935212      -0.17100143      -1.59178424       0.01953022       0.06829194      -0.68422663       0.30489168       0.99496006      -0.21759525      -0.10884384      -0.07442546       1.10208667       0.14585342      -0.31383332       0.35876955       0.91379604       0.07565158      -0.00667554      -0.69005069      -4.61769356
O        1.81102133      -0.54180914      -1.56060505      -0.10161682      -2.01774502       1.56550741       0.26346126       0.65113137      -0.04640926      -0.15131725       0.13230089       0.91655649      -0.53181609      -0.25982567      -0.39272396       0.89669022      -0.20550363      -2.11551460       1.70523478      -4.62106990
O        1.18737209       2.51300812       0.36479414      -0.72679454      -0.31791258       0.64041305       0.28951961       0.78674595       0.58327845       0.26337370       0.43793269       1.00980332       0.23822429       0.00183117      -0.06084912       0.71681386      -0.75201924      -0.36015684       0.74214112      -4.59736341
O       -1.57448053      -2.14125395      -2.18223763      -0.12521857      -0.31445369      -1.07669938       0.21205586       0.56169895      -0.13669132      -0.17622530      -0.43055262       1.26978390      -0.39554409      -0.06848464      -0.34727219       0.93810297      -0.00063483      -0.38148237      -0.90065233      -4.78018705
C       -1.73377120       0.98668182       3.22653222      -0.50734770      -0.80746120       0.30432138      -0.06412056      -1.08454015      -0.34885206       0.92525596      -0.61652605      -1.33640075       0.39475160       0.76983101       0.05497697      -0.83725034      -0.52624402      -0.86932270       0.30998024      -5.88057041
C       -1.68548274      -0.89948231      -2.37298036       0.04438673       0.22931747       1.00833845      -0.07224586      -0.68726550       0.37444206       0.70018911       0.53154678      -1.63921220       0.23200234       0.60442349      -0.15642159      -1.27804912       0.00664066       0.39653474       0.99789342      -5.52627329
C        1.77054381       0.42711318      -2.26573873      -0.90846914       0.31767088       0.47785854      -0.08772886      -1.03973820       0.12813025       0.66855588       0.21526405      -0.91350173       0.43347476       0.53260964       0.51379288      -0.78723880      -1.11835862       0.52119198       0.38325291      -5.56097918
C        0.34003171       1.61288059       0.29347682       2.68469954       0.37483421       0.09236245      -0.08152576      -0.75479629      -0.88943592      -0.36907014      -0.69419353      -1.07696802      -0.32159206      -0.18173474      -0.16440208      -1.31057648       2.68023116       0.44333980      -0.04638697      -5.61032511
C       -0.98965025      -2.57367420       0.77045661       1.66568661       0.32319462       0.25783736      -0.02813497      -1.43030102       0.14250478      -0.00443916       0.26963023      -0.21462951      -0.34090949      -0.00709933      -0.11407761      -1.28969337       1.43344974       0.39206347       0.23709013      -5.84781508
N       -2.20929003      -2.34610939       0.45329422      -2.94685698      -0.27322447      -2.65168667       0.09448645       0.85767313      -0.23582528       0.00641523      -0.16328969       0.23771756       0.06629741      -0.03378664      -0.08616139       0.69995011      -2.92082325      -0.29534591      -2.72085435      -3.87348569
N        2.76606131       0.61440730      -3.12369728       0.96924686       0.79191792      -1.14293802       0.11566862       0.86338636       0.05443843      -0.60641083      -0.08906552       0.44195962      -0.15650927      -0.41017745      -0.22951958       0.60822549       1.06044545       0.80210338      -1.21599884      -4.49158424
N       -0.57714945      -2.32123804       1.96572590       0.49497753       0.53122729       3.70568752       0.05817771       0.64238947       0.03977109       0.26102026      -0.02017132       0.19386802       0.22960037       0.25192929       0.20426510       0.88325213       0.59692119       0.51938877       3.72657748      -4.50125022
N       -0.12263530       1.17889333      -0.85675550      -0.40689573      -0.92720938      -1.14696670       0.09364701       0.55557590       0.25503615       0.08289422       0.22435136       0.41052468       0.11205618       0.19109541       0.23926721       1.16513308      -0.45842050      -0.93464229      -1.05597520      -4.63125107
N       -0.75632423       1.46522200       2.45543194       0.36605003      -0.50460142      -0.44891244       0.06309848       0.82540281       0.18733754      -0.58109698       0.08601764       0.56030854      -0.08616918      -0.56006408      -0.18142358       0.65615152       0.37725542      -0.39142691      -0.46894200      -4.67608691
N       -0.16395395      -2.95302820      -0.13956681       0.00624880      -1.20655859      -2.92278194       0.09058552       0.75977070      -0.26083807      -0.07584473      -0.23512366       0.19630559       0.08586394      -0.08223779       0.03583214       0.79537489       0.19130939      -1.08769569      -2.83021761      -3.75299439
C       -2.42819643       2.01405525       4.05958462      -0.72783738      -0.01233082      -0.09055379       0.08926485      -0.04821954      -0.07119275      -0.09878775      -0.06338146       0.08578722       0.07121167      -0.05422127       0.05325219      -0.11293027      -0.69085190      -0.02562870      -0.11580546      -4.56017562
C        3.04846931       1.77528322      -3.96729851       0.19521511      -1.44277787       0.15230815       0.07895685      -0.09320949       0.00833934      -0.04235078      -0.06455297      -0.37299958       0.19615334      -0.03154868       0.10418087      -0.14598238       0.22961538      -1.43640143       0.13612980      -4.87841330
C       -0.90024173      -0.23749715      -3.52200913      -0.72284204       0.48037499      -0.24557772       0.08813244      -0.06779688      -0.00769964      -0.06245459       0.04857905      -0.09316143       0.00893553      -0.10563801      -0.05801598       0.31472626      -0.68693966       0.47995726      -0.25530360      -4.69060614
C        0.77032661      -2.33249283       2.55746555      -0.19528572      -0.61033452       0.88333118       0.02971438      -0.46838610       0.14275380      -0.27624560       0.02245989      -0.22760506       0.04505461      -0.08852643      -0.02986368      -0.15284947      -0.14246394      -0.66434408       0.88446111      -4.98305185
C        1.18735933      -0.97949123       3.14019966      -0.71101809       0.01224711      -0.88697547       0.09688434      -0.12662702       0.00597512       0.08321785      -0.04382769      -0.24933455      -0.05948256       0.04863694       0.02842810      -0.10845061      -0.67754827      -0.01799767      -0.92492292      -4.88286094
C       -0.46465707       1.22273409      -3.24831319      -0.67626089      -0.90481520      -0.31424335       0.09831960      -0.02948963       0.01563198      -0.23694519      -0.03485006      -0.16164929      -0.18791369      -0.00927451      -0.09583473      -0.14474398      -0.77667057      -0.98574286      -0.28089236      -4.72007471
C        1.31365263       0.11354446       2.09683084       0.11254114       0.78108054      -0.26068020       0.10210032      -0.09905743      -0.00197761      -0.01014266       0.04736482      -0.09750688       0.04990554      -0.08115961       0.03716653      -0.20134479       0.01390162       0.76527523      -0.35758147      -4.68962878
C        0.56857657       1.35589826      -2.13576007      -1.19007981       1.11774731       0.10547394      -0.02075849      -0.38663056      -0.07801568       0.08671682      -0.08143959      -0.04196515      -0.13440086       0.18262019       0.12018203      -0.76178262      -1.02306328       0.85824830       0.14480272      -5.16144499
C        0.01038298       0.69732428       1.46429205       0.06766739       0.54720271       1.36925697      -0.01617996      -0.38299797       0.18466304       0.12445764       0.23272648      -0.18526854      -0.31333179       0.12434345      -0.15483838      -0.29470264       0.20420700       0.39845617       1.44120023      -5.05358935
H       -2.36619449      -2.31803155      -0.60006243       0.01836015       0.19556858       1.23009944      -0.09441672      -0.17042922      -0.01240715       0.10541941      -0.09184900      -0.25291424       0.04941703       0.17367088       0.11387159      -0.67751121      -0.01544266       0.17085040       1.21108268      -3.71313832
H       -2.78226376      -1.77951920       1.02452636      -0.41711175       0.47047117       0.49847311      -0.15191500      -0.23992487       0.05574209       0.07281469       0.04555021      -0.24111288      -0.03461318       0.05323380      -0.06382479      -0.21272770      -0.35456273       0.51861220       0.50499151      -3.60125296
H        3.47496748      -0.10925931      -3.04528069      -0.35462096       0.35698113      -0.08666740      -0.19756633      -0.23923322       0.04742818      -0.01279047       0.01819462      -0.24808546       0.03480634      -0.01301876      -0.00113613      -0.17797739      -0.34555683       0.41008274      -0.05467940      -3.59410616
H       -1.31445920      -1.93459690       2.55178761       0.57546389       0.12412813       0.20264359      -0.15931591      -0.21401581       0.10090665       0.16776453       0.13212823      -0.37932090      -0.14124325       0.16382712      -0.02459687      -0.33922909       0.58971550       0.17682535       0.11632479      -3.65429099
H       -0.91782868       0.53096604      -0.82938600       0.34227958       0.27529207      -0.44670147      -0.13345204      -0.54334423      -0.19251399      -0.16868304      -0.19715971      -0.24575117      -0.12235072      -0.16790134      -0.10146810      -0.19499112       0.28874555       0.24740712      -0.43603758      -3.72007584
H       -0.64077425       2.45262957       2.43315315       0.24999715       0.49217865       0.00594749      -0.19514398      -0.14461496      -0.04891246      -0.06186626      -0.03764498      -0.23891736       0.04500809      -0.06057455       0.04513074      -0.11273983       0.24094051       0.48294914      -0.01650015      -3.58089528
H       -0.55155838      -2.90313387      -1.10443592       0.73016822       0.06940737       0.40588355      -0.07228998      -0.29059127       0.08961163      -0.28683614       0.11536027      -0.22089071       0.14937820      -0.30174261      -0.00384786      -0.54025020       0.60272143       0.06013446       0.30961548      -3.83187896
H        0.78562796      -3.11113167       0.02982002       1.04745114      -0.06530803       0.16870658      -0.15245350      -0.30047578       0.22673785       0.02230173      -0.01238423      -0.18005238       0.00918765      -0.03085697       0.17207894      -0.18905384       1.05470303      -0.05404852       0.18475402      -3.56195510
H       -3.46647596       1.69633329       4.19891024       0.34089991       0.11289074       0.09979878      -0.04686267       0.11958513      -0.01833763      -0.07653800       0.01000649       0.00007918       0.00653217      -0.04883500       0.02506987       0.03299539       0.33597690       0.11234978       0.09770951      -3.96636514
H       -2.41225553       2.96475124       3.56056929      -0.10195612       0.52058673      -0.15917136      -0.04997585      -0.00700593       0.00265245      -0.00745869       0.03938821       0.03636893      -0.08948059      -0.00800688      -0.02644039       0.00574766      -0.12048955       0.52632085      -0.16013224      -3.94065104
H       -1.94599736       2.14409876       5.01350641       0.14926149      -0.15015778       0.38165042      -0.05223052       0.00680836      -0.00362889       0.02226403       0.02903778      -0.03270957      -0.01354513       0.01623870       0.04321147       0.13227868       0.14429573      -0.15522162       0.38540298      -3.98045411
H        2.52982497       1.69093645      -4.90560150      -0.08460511       0.06433719      -0.50513035      -0.06362206      -0.00483140      -0.01194138       0.03729091      -0.04453099      -0.00899960       0.03831413       0.09552247      -0.05066088       0.00270092      -0.06783520       0.07667446      -0.50298485      -3.99187278
H        4.12101889       1.76531184      -4.12554407       0.00469839       0.30557770      -0.18906151      -0.05729230       0.03283215       0.05153331      -0.02054427       0.02028780       0.02196254      -0.03798366       0.00239420      -0.02257855      -0.02870397      -0.00042235       0.26604777      -0.20227515      -3.94373425
H        2.75634027       2.67091465      -3.48835778      -0.18637852       0.94472450       0.53166622      -0.06125096      -0.02263352      -0.03670356      -0.00242667      -0.07253719       0.09317682       0.04344107       0.02523370       0.04895160      -0.05457794      -0.18769857       0.93363878       0.52673475      -4.01623611
H       -1.57983756      -0.23447537      -4.40149450       0.45385119      -0.09558334       0.44852051      -0.05500003       0.03567646       0.02791996       0.05517209       0.06330105       0.07340244       0.08716376       0.03649004      -0.02001732       0.10982930       0.43802369      -0.07510275       0.43021551      -3.93000197
H       -0.02121475      -0.82428557      -3.77491736      -0.12512015      -0.23209392       0.01480433      -0.05363731       0.05258701      -0.07132018      -0.10105965      -0.05070768       0.07294172       0.06522691      -0.04952149       0.04802930       0.07464375      -0.13550867      -0.24186631       0.01922945      -4.02960109
H        0.77017486      -3.06919479       3.40086341       0.03372444       0.39825356      -0.82587284      -0.06216038       0.02932337      -0.08405412       0.11138545      -0.00341014       0.13060083      -0.08827014       0.02935261      -0.12365158       0.09235182       0.01768338       0.43209805      -0.84856848      -3.87342443
H        1.52724779      -2.64886045       1.84159374      -0.23132940      -0.06884471      -0.10336099      -0.05938729       0.04912741      -0.04580342      -0.00637522      -0.01271505       0.05627346       0.03523531      -0.03198481       0.03926885       0.05781188      -0.27519814      -0.08337613      -0.10100094      -3.91000076
H        0.44287923      -0.65943670       3.84342909      -0.24231324      -0.03024300       0.69117099      -0.04901439      -0.00105597       0.00417419      -0.08321978      -0.00318017       0.01939433       0.01292846      -0.06525892      -0.00000761       0.10118779      -0.25066804      -0.01996262       0.69944957      -3.93364994
H        2.15293360      -1.06222129       3.63512182      -0.10725639      -0.23588847       0.09874387      -0.06093062       0.05490449       0.02846293       0.00917855      -0.00138772       0.08288011      -0.05284285       0.06777283      -0.00578019       0.05825701      -0.10718954      -0.23171019       0.09472502      -3.92241048
H       -0.03782380       1.60110438      -4.15858221       0.35599720       0.14864957      -0.49918851      -0.06581108       0.00847281      -0.00673814       0.13418704       0.07035250       0.04180004       0.08058491      -0.05827795      -0.01050560       0.01378195       0.38964652       0.16247657      -0.48659029      -3.92060781
H       -1.33400714       1.87276781      -3.05075002       0.43180755      -0.43741933       0.23429309      -0.04506011       0.08938212      -0.07201123       0.01671313      -0.04649144       0.07060913       0.07996624       0.00115326       0.04469156       0.00522476       0.41113775      -0.43143974       0.24156256      -3.96565335
H        1.85311389       0.92893755       2.58807921      -0.21145171       0.15361728      -0.36466908      -0.05170855       0.04755881       0.05092971       0.03593343       0.07845386       0.06711633       0.05101689       0.01046333       0.00413487      -0.04007149      -0.22973427       0.15974232      -0.34884258      -3.90154068
H        1.96049547      -0.24052423       1.30987477       0.14284249      -0.02351549      -0.50057578      -0.05468857       0.06999426      -0.04665021      -0.09191221      -0.02240983       0.00952414       0.00467472      -0.01001203      -0.01156527       0.11226588       0.14700558       0.01037472      -0.48618402      -3.98607859
H        0.87476408       2.37762928      -2.21679735       0.51270169       0.62899202       0.33357882      -0.05417162       0.03361947       0.01765060      -0.00096796       0.04754369       0.06479162      -0.01660768       0.00421049       0.01006085      -0.04187239       0.52810665       0.67147896       0.38556385      -3.76283547
H       -0.62094939      -0.08174115       1.10247612      -0.37020433      -0.42913386      -0.07337386      -0.04416722       0.00637995       0.04054404       0.08542147      -0.02617184       0.05581541       0.11562458       0.00528149       0.03421765      -0.00498267      -0.34152149      -0.43110395      -0.14224426      -3.83466523
48
Properties=species:S:1:pos:R:3:original_dataset_forces:R:3:LES_q:R:1:LES_BEC:R:9:forces:R:3:energies:R:1 original_dataset_energy=-211.23544311523438 energy=-211.2821672699078 stress="-inf -inf -inf -inf -inf inf -inf inf inf" pbc="F F F"
O        1.36629605      -1.13816464      -3.93376184      -0.04094693      -0.94536591       0.32818079       0.29791206       0.56915361      -0.34544517       0.04332323      -0.17414735       0.93370167      -0.61435525      -0.14475148      -0.12586987       0.88246305      -0.05518681      -0.95594295       0.26450092      -4.58515870
O       -1.29340363      -2.09603024       0.79243320       0.95221698      -0.85201043      -0.17513187       0.31018662       0.99247748      -0.00179376       0.08212878       0.06563528       0.65142422       0.05044667       0.31742671      -0.13688188       1.31754640       0.88047985      -0.91931100      -0.18096028      -4.63418547
O        1.92397738       0.07562071      -1.37205887      -0.00966065      -0.70922416       0.09680276       0.25377688       0.78896148       0.21853604      -0.49820830       0.41347052       0.86407531      -0.14905503      -0.38560019       0.05241083       0.91706205      -0.09710041      -0.68758528       0.18219234      -4.66629292
O       -0.41484714       2.88968873       0.85330647       0.08406164       0.45996094       0.19626044       0.20217648       1.23381873      -0.05553347      -0.61460130      -0.22391341       0.80696113       0.04694818      -0.40498539      -0.44917625       0.72616958       0.05273773       0.47044528       0.16844209      -4.84863478
O       -2.90068173      -1.63225150      -0.59833896      -0.95532298      -0.56339103      -1.12905765       0.26643300       1.50276117      -0.28391845       0.18397640      -0.52499387       0.64164303      -0.01071025      -0.08613787       0.11655729       0.91714518      -1.03652117      -0.56209780      -1.12528998      -4.70622751
C        1.84436846      -2.17560053      -3.48067260       0.22524871       1.94884300      -1.50300550      -0.05575418      -0.60212089       0.55315295       0.40486110       0.29263847      -1.02651615       0.80355752       0.50304618       0.27199482      -1.77617373       0.18586179       1.98131666      -1.45153810      -5.86154339
C       -1.73846865      -2.03303075      -0.38283214       0.45092428       1.55562556       0.61402774      -0.07064450      -1.68247325       0.34516683      -0.20549298       0.37247045      -0.23870656       0.09555147      -0.37173379       0.00866191      -1.71539889       0.55049372       1.49555229       0.69318496      -5.52844095
C        1.11131036      -0.61349189      -0.74277151       2.12904429       1.31465197      -1.82700408      -0.09190074      -0.77150873      -0.29711311       0.72974576      -0.41140326      -0.88845558      -0.08443488       0.69620940      -0.23428092      -1.26623633       2.20797745       1.41155129      -1.94976431      -5.59894619
C        0.62907898       2.35246229       0.46947187      -1.47868311      -0.84398341       0.38014597      -0.08920070      -1.17863712       0.42698661       0.81023368       0.31240209      -0.97914571       0.20488582       0.79932778       0.46605337      -1.00596743      -1.47534601      -1.00803441       0.38971161      -5.61264806
C       -2.92313576       0.45600599       1.53759289       1.67751849       1.07378232       1.49294031      -0.03423400      -0.59508025      -0.43881058      -0.53819639      -0.09813414      -1.11845119       0.01641256      -0.47439943       0.23928227      -1.08468654       1.64974749       1.12353299       1.39612130      -5.67093241
N       -3.36326480       0.86851519       0.38648325      -0.09001005       2.35995698      -1.91403854       0.08954582       0.24696120       0.04004854       0.24962986       0.00732464       0.59406311       0.00494774       0.28401585      -0.10062564       0.73224944      -0.18059007       2.31446331      -1.98156900      -3.97623726
N        1.27450514       2.74189043      -0.60768634       2.07810712       0.05773917      -1.36634088       0.09343587       0.48680264      -0.17369100      -0.34014944       0.06945543       0.68688271      -0.32078582      -0.47419178      -0.27749522       0.81808451       1.98047262       0.04057048      -1.35567211      -4.86845110
N       -2.04753399       1.15536070       2.26518774       0.07370212       0.51357532      -0.17961836       0.07306248       0.48355952       0.27871500       0.44805286       0.12698722       0.54232661       0.16758117       0.35775214       0.04770082       0.61437805       0.11619800       0.55587999      -0.20933174      -4.38294963
N        1.55745578      -2.66252995      -2.27366495      -0.17786495       0.07850560       1.88320649       0.05463004       0.41100493      -0.11027148      -0.34484461      -0.25034293       0.65032131      -0.04131273      -0.29476611      -0.25120609       1.07059821      -0.28024561       0.05908172       1.95274558      -4.69925257
N        0.64203870      -0.12183529       0.41145498      -1.02126157      -0.52839845       0.44309747       0.09845040       0.32625958       0.09140155      -0.20804492      -0.00143676       0.79039614       0.35027047      -0.32765723       0.28248293       0.94403663      -0.93558925      -0.65427820       0.28120067      -4.60410935
N       -3.38229704      -0.67758864       1.91276026      -0.63489228      -3.01013494       1.83508074       0.08830824       0.33721263       0.09941553      -0.03152238       0.14863668       0.76650983      -0.22015782       0.01191190      -0.16096749       0.54825067      -0.78310843      -3.07799351       1.90681526      -4.01589478
C        2.90979576      -2.93036342      -4.26286650      -0.85195607      -0.74273163      -0.06559679       0.09237435       0.07373920      -0.17828649      -0.18606792      -0.14873577      -0.00641629       0.08868497      -0.12730353       0.07412089       0.02244396      -0.82925922      -0.73968431      -0.08707437      -4.40667596
C        0.85520053       3.86432624      -1.42486477       0.61543775       0.60774708      -0.24986374       0.08041023      -0.19036959      -0.07947236       0.01267750       0.05111894      -0.34523945       0.16956989      -0.02866420       0.14524714      -0.27539893       0.61792133       0.60494636      -0.24383833      -4.79808191
C       -1.28596091       0.72726291       3.47473907      -1.20320261      -0.63839400      -0.16562454       0.02627386      -0.17790398      -0.01267269      -0.22597050      -0.01420683      -0.18700846       0.19100957      -0.11890988       0.06169434      -0.38143695      -1.14540784      -0.63516958      -0.17543165      -5.01889296
C        0.07789046       1.37327695       3.58718967       0.01619928       0.12644206      -1.48702002       0.09572743      -0.18913940      -0.03703558       0.01876432      -0.02926429      -0.18711536      -0.05904651       0.08584683       0.06680570      -0.09159092       0.03505287       0.08763335      -1.48556782      -4.91834583
C       -0.77691281      -2.14598608      -1.60090137       0.18722165       0.36724058       0.71105999       0.07682429       0.06666516      -0.07206496      -0.21613786      -0.02491999      -0.06410844       0.05185966      -0.13140937       0.06319815       0.12401387       0.16514791       0.34380346       0.63463753      -4.56760445
C        1.17300355       0.86394495       2.62499404       0.13650951      -0.17019147       0.22866926       0.09172098      -0.04331734       0.07858972       0.12923864       0.06394222      -0.05195643       0.03778054       0.03623951      -0.08591496      -0.21462836       0.18293928      -0.06064843       0.18102405      -4.70098874
C        0.72548139      -2.02957153      -1.22799516      -1.01451349      -0.79702747       0.50307399      -0.00713308      -0.37293280       0.10373272       0.04089381       0.22186214      -0.27597211      -0.21712950       0.12880588      -0.12454675      -0.39800145      -0.86254139      -0.65224362       0.65284401      -5.08125991
C        1.17835903       1.05454540       1.07938981       0.14654726      -0.31029850       0.18656814      -0.01637211      -0.14368502      -0.20608796      -0.11725782      -0.18373519      -0.34928707      -0.15433427      -0.10229298      -0.10638542      -0.38360871       0.10396971      -0.24064745       0.32066987      -5.04829189
H       -3.57222939       0.11366683      -0.25842124       0.05764667       0.12301335      -0.30118200      -0.11887010      -0.23414786       0.11475034      -0.01400882      -0.00803907      -0.57912343      -0.16426456      -0.01961320      -0.16584286      -0.24016208       0.07679437       0.19005644      -0.29944894      -3.72885059
H       -2.94135451       1.72363615       0.03575641      -0.26044911      -0.48982328      -0.23754962      -0.15364894      -0.20072830      -0.05002719       0.02990982      -0.02159626      -0.30805400       0.06177739       0.01067184       0.07296608      -0.17012405      -0.21070641      -0.43125388      -0.15138884      -3.51395938
H        1.97871923       2.10120106      -1.02551305      -0.88914776       0.43954706       0.69153631      -0.17104650      -0.26740977      -0.05565701       0.06899939       0.02986197      -0.42033461      -0.06451028       0.06747556      -0.02372009      -0.19937202      -0.92111592       0.45022920       0.68209263      -3.64430424
H       -1.75256908       1.98401213       1.75053144       0.75605345      -0.02899382       0.66319156      -0.13366562      -0.38663575      -0.13721593       0.21510447      -0.18085552      -0.38548637       0.12391556       0.20519358       0.12595683      -0.26769987       0.75179987       0.01202179       0.60622070      -3.77430426
H        1.97119689      -3.55112171      -2.04356170      -0.03441010       0.27078110       0.21072069      -0.19811217      -0.19635643       0.05792377      -0.03080246       0.09702274      -0.41052374      -0.07336762      -0.07852250       0.06098088      -0.09316901      -0.02837469       0.24546797       0.18151769      -3.57693835
H       -0.07301289      -0.67719138       0.84431034      -0.37581638      -0.28617421       0.50939995      -0.15024079      -0.36260281      -0.22999125       0.04842130      -0.20072113      -0.38765302       0.04777054       0.04601504       0.08707481      -0.17916547      -0.31803859      -0.28228183       0.49086837      -3.80859643
H       -3.53703785      -1.27628160       1.10098457      -0.15794308      -0.44027221      -0.07132410      -0.10747306      -0.29157891       0.01949234       0.13083572       0.09518671      -0.15596162      -0.21642836       0.14525631      -0.17382493      -0.56458799      -0.05364803      -0.42800101      -0.07942258      -3.65001933
H       -2.79393387      -1.13715470       2.58910251      -0.23234361      -0.25054628       0.01778217      -0.15735625      -0.18811375       0.09887965      -0.08699035       0.04032009      -0.18698405       0.04307341      -0.06640275       0.02655472      -0.25262363      -0.23911544      -0.22886262       0.05992469      -3.40469922
H        3.66301703      -3.31434727      -3.56966472       0.06583434       0.05115739      -0.33721220      -0.05166149       0.05485155      -0.04435156       0.02042859      -0.02379708      -0.00090121      -0.04441327       0.05563817      -0.03980156       0.00094057       0.06623729       0.03641783      -0.32755740      -4.02133961
H        2.41569877      -3.80371165      -4.77795219       0.67259747       0.92943239       0.31706676      -0.04946273      -0.02499684       0.05634199       0.05309573       0.03984911       0.04940654       0.04106191      -0.00877434       0.07518969       0.05758320       0.66809270       0.92866754       0.33729753      -3.99896208
H        3.31870389      -2.20687389      -4.97421980      -0.01659807      -0.50836420       0.11526635      -0.05021979       0.03221373      -0.00748598      -0.06806712       0.04188715       0.00432332      -0.05555440      -0.07962669       0.01086598       0.08522449      -0.00589049      -0.50914096       0.12397931      -4.01480549
H       -0.07658702       3.60961986      -1.87666631      -0.80756426       0.08858770      -0.38258618      -0.05271858       0.05074942      -0.00523128       0.05218290       0.00837667      -0.00325046       0.00745499       0.01936615      -0.03870089       0.00070172      -0.79973152       0.09734727      -0.39676004      -3.96857051
H        0.72461724       4.76904345      -0.81287098       0.04917320      -0.39053154      -0.23172502      -0.04849222       0.00520271       0.01020301      -0.01382732      -0.02629522       0.09027568       0.00666248       0.01322270       0.10214298      -0.01334609       0.07973164      -0.34805077      -0.24113572      -4.01003533
H        1.57668734       4.08410358      -2.25707245      -0.49930823      -0.43652013       1.07039034      -0.05463899       0.02203629       0.05932101      -0.05689950       0.01684319       0.03679312      -0.04413804      -0.05090287      -0.10199764       0.07747120      -0.48164530      -0.43449119       1.08803622      -3.98220396
H       -1.89828241       0.91162294       4.37556076       0.29900953       0.23584929      -0.39089456      -0.06766066       0.03000664       0.02396002       0.02246705       0.01313091      -0.02422917      -0.01846410      -0.16160436       0.03069501       0.22054829       0.29260386       0.18354018      -0.38679580      -3.91695494
H       -1.16078067      -0.36719596       3.46609354       0.00620642       0.26409420      -0.30174020      -0.05679195       0.05185541       0.03243309       0.00401278       0.03053926       0.08419420      -0.04212625       0.01715876      -0.01871115      -0.00535673       0.00923474       0.26118764      -0.27039103      -3.90861402
H        0.47536576       1.18722296       4.56509542      -0.03545115      -0.03707152       0.61595488      -0.06254666       0.05065893      -0.01250305      -0.04329379       0.01775707       0.00982206       0.04495203       0.03743257       0.01296906       0.13526251      -0.03238744      -0.03407323       0.61651008      -3.86602975
H       -0.01338542       2.43619108       3.44580317      -0.13272174       0.47955686       0.16685326      -0.05150641       0.02650270      -0.01389218      -0.00922977      -0.02423180       0.10936728      -0.01374101      -0.04020126       0.00513967      -0.05787628      -0.12058548       0.47286012       0.14377870      -3.93805845
H       -0.97142339      -1.30298615      -2.25266504      -0.46046013      -0.16781516      -0.30205461      -0.05370010      -0.00674315      -0.00722083       0.03661135      -0.01296960       0.04259853      -0.05755725       0.09496125       0.02519522       0.13403721      -0.45118403      -0.15813990      -0.30767067      -3.96703854
H       -0.95328456      -3.08217001      -2.13092089       0.03788690       0.17104056       0.00167340      -0.05744634       0.05967485       0.06928333       0.03851092       0.01188241       0.09764169       0.08612594       0.02499744       0.15738529       0.10461558       0.04161023       0.12839817      -0.01941475      -4.01031248
H        2.09132266       1.32544756       2.97922873       0.06294063       0.20922525      -0.01358735      -0.06050327       0.07815293       0.05209051       0.03400913       0.00411295      -0.02192678      -0.03794334       0.01582013       0.03354409       0.03238645       0.06115388       0.18013744       0.01005010      -3.83061967
H        1.32967377      -0.19984639       2.87075162      -0.11617693       0.23193242      -0.56161231      -0.05230857       0.00395584      -0.05735538      -0.02489077      -0.02887872       0.11868645      -0.01589061      -0.01181946      -0.00482793       0.06671990      -0.12332591       0.20396103      -0.50806905      -3.88316522
H        0.84577072      -2.61539388      -0.31858394       0.11796666      -0.35315076      -0.12624690      -0.05348422       0.00195596      -0.02073361      -0.01354060      -0.00714503      -0.00090545       0.00158045       0.02527847      -0.06623251       0.07125433       0.09000742      -0.36040751      -0.18173891      -3.72433328
H        2.21084833       1.12204170       0.78830904       0.59971809      -0.45960820       0.04168051      -0.04020886       0.11928770       0.10343777      -0.02007019       0.02704888       0.03229878      -0.02415978      -0.00879948      -0.03586073       0.01542446       0.60037970      -0.47073037       0.05146523      -3.59953433
46
Properties=species:S:1:pos:R:3:original_dataset_forces:R:3:LES_q:R:1:LES_BEC:R:9:forces:R:3:energies:R:1 original_dataset_energy=-201.24740600585938 energy=-201.2546010002129 stress="inf -inf -inf -inf -inf inf -inf inf -inf" pbc="F F F"
O       -2.83827138       0.33701879       3.58521843       0.39093018      -0.54119551       0.77049023       0.28210831       0.90044401      -0.07190868       0.37818494       0.04694065       0.34567483      -0.19524453      -0.08429986      -0.14096962       1.27717949       0.41940088      -0.57278526       0.86225479      -4.62552935
O        0.72533935       2.03614235       0.38466832       1.16680610       0.06493869       2.31560564       0.21450603       1.13592262      -0.10267645       0.29444857       0.03684741       0.76886945      -0.11983233      -0.03545572      -0.25900527       1.12209924       1.23328286       0.04901028       2.27900225      -4.77665464
O       -1.96682405      -1.48607886       0.69282639      -0.70315325      -0.63086462      -0.07713457       0.23671715       1.00887332       0.23336688      -0.23817139       0.45165176       0.98867790       0.04713054      -0.18562505       0.11741742       0.57449907      -0.78865879      -0.61745056      -0.10962329      -4.74526930
O        1.10255075      -3.44842148      -1.78192043      -0.33177242       1.09292841       0.65220988       0.29196793       1.04427244      -0.32108098      -0.03211995      -0.48159877       0.92901744       0.34078238      -0.20082789       0.42486587       0.59020738      -0.34447586       1.10907817       0.66174937      -4.62536833
O        0.15815291       2.37409687      -1.65635085      -0.75116944       0.40958706      -0.92400056       0.35660210       0.87553821       0.05821327      -0.21520665      -0.01620081       0.52509831      -0.25114166       0.06592209      -0.42908426       1.54730046      -0.78777210       0.42587215      -0.99206989      -4.42278581
C       -3.61118698       0.48533893       2.66947627      -0.21767814       0.13839325       1.11643660      -0.08048131      -1.37405775       0.01396787       0.07269666      -0.14293397      -0.22953917       0.47179611       0.31038159       0.36233061      -1.96935422      -0.26593340       0.25889605       0.93043969      -5.85190191
C       -0.15976439       2.16057849      -0.47635505      -0.71908695      -0.35510206      -1.60072160      -0.06909667      -1.42724782       0.00130551      -0.10791662      -0.11751903      -0.28542186       0.31025803      -0.05893300       0.58076501      -1.88027579      -0.68996612      -0.28744385      -1.55816180      -5.53185773
C       -1.24781740      -0.50547493       0.65659016      -0.19677295      -1.34014595       0.18611856      -0.07317632      -1.72667828      -0.22909066       0.44159481      -0.44933328      -1.20246258      -0.05885504       0.37853197      -0.11708417      -0.21752054      -0.05911653      -1.27675745       0.25059067      -5.71631638
C        0.33188820      -2.61647940      -1.27654409      -0.12698200      -1.70899868      -1.64202213      -0.08934195      -1.70451168       0.45080774      -0.20728673       0.39193948      -0.86085537      -0.56526011      -0.22235719      -0.51657718      -0.68761004      -0.06856154      -1.67956120      -1.64020644      -5.59712981
N       -0.96337724      -2.56073880      -1.67987704      -0.48568234       1.76336253       0.44626337       0.12067036       1.04186868      -0.13940833       0.19082576       0.00185570       0.37871668       0.23245849       0.36800862       0.34335755       0.58601873      -0.53030712       1.67620388       0.40924278      -4.70547886
N       -3.16863275       0.85398620       1.45493031      -1.27762187       0.37715462      -2.13712502       0.09468628       1.00033966       0.00912954      -0.55772457       0.00014584       0.31609261      -0.27717518      -0.28747358      -0.25867402       1.07748463      -1.23343685       0.28818974      -2.10829569      -4.62357505
N        0.04945362      -0.57965809       0.31734017       0.52454811       0.85604417      -0.43940473       0.09911022       1.25071327       0.05548539      -0.28197764      -0.08991233       0.75780030       0.23172795      -0.24790788       0.26775205       0.32286378       0.62689453       0.94267671      -0.41480770      -4.66179666
C       -5.12915993       0.36416221       2.82154393       0.35602233       0.48388150       0.27554986       0.09108359       0.17807151       0.02592577      -0.00899424       0.08031548      -0.14517235      -0.04437150      -0.08488691      -0.00316722      -0.01782491       0.36700319       0.52420457       0.32790154      -4.48915699
C       -1.66670418      -3.28709459      -2.73523903       0.72447824      -1.49554026       0.57124949       0.08656767      -0.18795125       0.02611095      -0.03570677      -0.05736655      -0.13004089      -0.05788834      -0.19026138      -0.20728209      -0.38320443       0.71633384      -1.50135951       0.55419665      -4.73849936
C        3.05083036      -0.46405005       0.54076570      -0.25697973       0.51562750       0.69891661       0.10084274      -0.04701275      -0.05365363       0.01581265      -0.11337882      -0.06665724      -0.05838622       0.07341516      -0.04814585      -0.15535584      -0.29375655       0.49598702       0.67524965      -4.88066159
C        4.17019749       0.45451814       0.02933207      -0.51094204       0.32368031      -0.90314400       0.09862690      -0.16190112      -0.05611684       0.09137384      -0.07868117      -0.20594000       0.02816090      -0.05601702      -0.02997712      -0.07892148      -0.56740249       0.35878373      -0.93874160      -4.77187433
C       -1.61590266       1.87847900      -0.10188297      -0.04924352       0.79781961       0.92920947       0.06389624       0.19333461      -0.06614154      -0.09599119       0.04860849      -0.07822711      -0.00402903      -0.10945054      -0.00481302      -0.07263328      -0.17249911       0.78704473       0.87744315      -4.65717718
C        2.24190307      -1.13974059      -0.53975093       0.12775083      -0.40180907      -0.76954597       0.10321327      -0.22357702       0.12127304       0.05282732       0.05423117      -0.06745913       0.03414919       0.03194899      -0.01970257      -0.12165103       0.11480867      -0.42101348      -0.84976978      -4.73453545
C        3.82831120       1.94616914      -0.12083599       1.12429786      -0.99667454       0.01716303       0.03129969      -0.22621548       0.23462459      -0.20677379       0.17046631      -0.23286750       0.05247722      -0.27570535      -0.00724150      -0.41503687       1.15035850      -0.93871659      -0.05515484      -4.93154014
C       -1.78876281       0.84600049       1.02623701       0.77184170       1.65428889       1.13033354      -0.00861787      -0.62113962       0.06944076       0.17267661       0.27270861      -0.19122509      -0.00591067      -0.00607621       0.11841404      -0.28686950       0.63438013       1.57006497       1.12913656      -5.17065531
C        0.85941988      -1.70860386      -0.14205357      -0.19884238       0.08180638       0.44184518      -0.01922049      -0.35357945      -0.02423555       0.12273683       0.24581808      -0.43253718      -0.04276766       0.27899310      -0.20234320      -0.21068898      -0.40250450       0.06689015       0.50544038      -5.12562746
N        2.86180401       2.21325660      -1.19364119      -0.45916873       0.11200941       0.75157964      -0.05664367       0.46906432      -0.03847084       0.00762358       0.05029234       0.36828430      -0.05328507       0.23385403       0.10674975       0.29488095      -0.27398212       0.26707863       0.85906850      -3.75549845
H       -1.59101391      -1.98800206      -1.11943102       0.47234219      -0.31359512      -0.02491012      -0.15099478      -0.21425424       0.13630016       0.14059631       0.04639535      -0.19642067      -0.07632701       0.07573843      -0.12444600      -0.45319543       0.48392890      -0.27927648      -0.00226267      -3.62845971
H       -3.89887881       1.17827272       0.79878974       1.06811428      -0.66287673       0.46149659      -0.20064965      -0.20469527       0.09245627      -0.09139964       0.03594138      -0.20195808       0.00401953      -0.08404234      -0.00785846      -0.19572044       1.13584215      -0.67254136       0.50328813      -3.53590498
H        0.54278839       0.31180859       0.40777117      -0.15510370      -0.43955365      -0.04111033      -0.13760431      -0.04680350      -0.13208147      -0.02513180      -0.13113707      -0.60790270       0.02650768      -0.06851512      -0.02223167      -0.12760479      -0.16450766      -0.55046691      -0.06385121      -3.63916523
H       -5.46941376      -0.12941128       3.74399590       0.60535610       0.50981516      -0.21213982      -0.04556445       0.11221137       0.02351318      -0.09794771       0.02593245       0.00934376      -0.04391994      -0.09359979      -0.03365203       0.08989453       0.62728453       0.48149977      -0.23486594      -4.06394701
H       -5.46896553      -0.24477631       2.02228928      -0.53523141      -0.43562385      -0.88405019      -0.05256941      -0.04045976       0.02183763       0.03750148       0.01316143       0.01054909       0.03084829       0.06328069       0.02906286       0.01546314      -0.54966599      -0.43499850      -0.89003629      -3.93291792
H       -5.56749773       1.36873150       2.72181726      -0.00486737      -0.39492524       0.13209291      -0.05028847      -0.04051569      -0.03866745       0.01880295      -0.07745046       0.07133003       0.01747073       0.03085029      -0.02284479      -0.02520525      -0.00415965      -0.41408189       0.12337625      -3.99700344
H       -1.00017548      -3.61197209      -3.54984879      -0.18869472       0.35893488       0.44378588      -0.04922177      -0.03368164      -0.07281187      -0.10748633      -0.00845308       0.00088471       0.04177272       0.01347470       0.10937831       0.11247365      -0.18054192       0.37317392       0.45210530      -4.04278621
H       -2.08067322      -4.20294619      -2.26822615       0.13099118       0.27039519      -0.46656999      -0.05360571       0.02931414       0.06490423       0.04187065       0.05377866       0.03769254      -0.00044773       0.00602423      -0.00826994       0.02005473       0.13725137       0.27014017      -0.46977296      -3.92723324
H       -2.51434135      -2.73087716      -3.12819338       0.28793100       0.32882759       0.09617355      -0.05911973       0.05962284      -0.02663441       0.05388780      -0.03632982      -0.03423820      -0.03160951       0.05832620      -0.00488832       0.01486757       0.30234111       0.30758703       0.09318272      -4.02144779
H        3.55278492      -1.22862327       1.13571286      -0.39837751       0.07518714       0.24188480      -0.06698622      -0.03099342      -0.00795483       0.02809320      -0.02002619       0.04936526      -0.06021286       0.08666976      -0.05708383       0.06189018      -0.39026596       0.08964177       0.25787953      -3.88818053
H        2.35768390       0.12405294       1.16504002       0.58254135      -0.23716588       0.15996040      -0.04764683      -0.02471997      -0.00955273      -0.09388551       0.02465414       0.01008117       0.04384810      -0.10787046       0.02470821       0.04887410       0.56857216      -0.14413958       0.16045038      -3.91166499
H        4.55696678       0.09525895      -0.93730611       0.00334721      -0.07381965       0.29548678      -0.05917134      -0.00522334       0.02257341      -0.03570695      -0.04832500       0.06615358       0.02082350      -0.05089429       0.02527348       0.09281541      -0.01047970      -0.07969631       0.26481197      -3.91216750
H        4.98011875       0.43577111       0.73035079       0.52195013      -0.08839205       0.29562569      -0.06428597       0.06390752      -0.00673711       0.04566743       0.05261546       0.05757562      -0.01152356      -0.03595126      -0.02173874       0.00938774       0.51567865      -0.11754341       0.30081570      -3.85274836
H       -2.07137060       2.79875326       0.29911265       0.33147100      -0.11511051      -0.23708755      -0.05077732       0.09158304      -0.08102473      -0.00545499      -0.06358301       0.08293826       0.01357287       0.02704948      -0.02980075       0.00557300       0.33614159      -0.11269988      -0.22735525      -3.85953618
H       -2.18607640       1.63051677      -0.98005122      -0.05097409      -0.29730085      -0.39071557      -0.05391397       0.09698285       0.00114383       0.07843547      -0.07364458       0.07500609      -0.00528567       0.14094737      -0.02024205       0.05342892       0.00174637      -0.28184200      -0.34359745      -3.98601643
H        2.14635348      -0.44921765      -1.38404751      -0.46222132      -0.08067340       0.01410466      -0.05787632       0.09252400       0.00467559      -0.03168022       0.09722641       0.00123615      -0.11239355      -0.02285891      -0.03947568       0.07888444      -0.39684584       0.02245371       0.04725937      -3.95261877
H        2.85179329      -1.94932246      -0.92031044      -0.19447805      -0.27926171      -0.20715480      -0.04575431       0.11692429      -0.04376315      -0.04769219      -0.03450781       0.03233577       0.03230365      -0.09258944       0.06878787       0.04091046      -0.14425524      -0.32094347      -0.21149551      -3.85815264
H        4.74529123       2.48899841      -0.35719883      -0.13457310       0.00748757       0.10433847      -0.06477139       0.03424190       0.04437507      -0.00877937       0.04679747       0.05963804      -0.01615983      -0.03761979      -0.03301949      -0.02156871      -0.11748553       0.02287849       0.12732910      -3.87134409
H        3.44334960       2.27853584       0.82980442      -0.44627324       0.44495997      -0.05091570      -0.06016669      -0.18634306      -0.12534214      -0.01995245       0.03997808       0.04209551       0.04614318      -0.04051205       0.01886024       0.09931557      -0.47030597       0.46088621      -0.06515694      -3.91930610
H       -1.18285286       1.17466378       1.91250277      -0.45386082      -0.13938892      -0.83736312      -0.03390919       0.04324477      -0.00963467       0.06746143      -0.03161174       0.00796912       0.01385381       0.08094214       0.01192389       0.01725180      -0.45282024      -0.14424400      -0.84585861      -3.77176501
H        0.97282463      -2.40724182       0.69778848       0.15793136       0.07943465      -0.13744277      -0.07183030       0.01402550      -0.07560860      -0.03886286      -0.01501640       0.04845831      -0.01700730      -0.02805397      -0.03693431       0.04402657       0.16563496       0.11171485      -0.14380097      -3.81290818
H        3.00902224       1.74817324      -2.06382227       0.51017237      -0.29219770      -0.66901815      -0.18286209      -0.17830316       0.04362618       0.04603641      -0.07884104      -0.28549797      -0.01246609       0.05688082      -0.09710244      -0.23699282       0.39632261      -0.27098897      -0.65579724      -3.48001335
H        2.74595952       3.19826651      -1.34078455      -0.01308271       0.57137662      -0.36124206      -0.18191570      -0.22357697      -0.01099075       0.01591101      -0.03939068      -0.35633236      -0.00835702       0.01545226       0.01034757      -0.16430902      -0.05867901       0.34675574      -0.30898471      -3.39478342
H        1.90287471       1.95717621      -0.89023149      -0.54176623       0.00287696       0.46401608      -0.08428136      -0.56958266      -0.01146944       0.17678384      -0.08306050      -0.23012945       0.08975252       0.31109308       0.18366089      -0.47610223      -0.51482121      -0.18816178       0.47745235      -3.55407010
45
Properties=species:S:1:pos:R:3:original_dataset_forces:R:3:LES_q:R:1:LES_BEC:R:9:forces:R:3:energies:R:1 original_dataset_energy=-204.53030395507812 energy=-204.50062063296753 stress="inf inf inf inf inf -inf inf -inf -inf" pbc="F F F"
O        0.34228623       4.28494263       1.82893348       0.65547884      -0.25100690      -0.87491614       0.29892403       0.58807797      -0.24633772      -0.33622817       0.01894528       1.23947396       0.29115590      -0.24552640       0.56706290       0.76883281       0.60612237      -0.20849495      -0.82428696      -4.58037640
O        2.37674165      -1.31567979      -1.18209493       0.87611198      -1.28832531      -0.15965500       0.31211904       0.99628341      -0.53758439       0.37988357      -0.43247262       1.11756977      -0.01896314       0.46922025      -0.22841882       0.91314440       0.92812682      -1.26295999      -0.11435535      -4.64018264
O       -1.58339453      -0.57231432       1.67288351      -0.29674116      -0.65141678       0.70591253       0.24741428       0.57684023       0.26083795      -0.25742327       0.34519770       0.83854219      -0.49353928      -0.02118732      -0.17675847       0.88427456      -0.27838429      -0.51336442       0.75838219      -4.77690253
O       -3.83743119       0.13494098      -1.30468547       1.69733322      -0.76098216       0.12419861       0.31115934       0.99405475      -0.42852403       0.06651619      -0.12812499       1.30202216       0.12909778       0.02150787       0.07993634       0.35177120       1.70318819      -0.83792450       0.10882364      -4.54011332
O        1.47911024       0.69973248      -1.12725425       0.18094420       0.09785179      -0.36280808       0.26862088       0.62498882      -0.11364215       0.07442172      -0.33692607       1.41291516       0.47491301      -0.12306785       0.56414218       0.93361312       0.27794287       0.16353452      -0.24002310      -4.69183800
C        0.89415443       3.52819920       1.02151740      -0.25124082       1.22893107       1.59682715      -0.06985823      -0.64247867      -0.10150257       0.50686360      -0.31160663      -2.19007380      -0.48136954       0.44643560      -0.59946255      -0.74555298      -0.18341132       1.10200044       1.54693569      -5.82927639
C        1.56899190      -0.47593307      -1.58385742      -1.04808462       1.51213181       0.58929765      -0.03320367      -0.99923027       0.55188621      -0.49244643       0.69200898      -1.80032767      -0.42771702      -0.57330549      -0.26400464      -0.77296339      -1.08147261       1.46517497       0.60018908      -5.67877935
C       -1.13031149       0.38359129       1.06494474       0.84701723       0.41396457       0.42956024      -0.07693121      -0.40613120      -0.47223591       0.15823910      -0.64200984      -0.92694847       0.49710346       0.03597517       0.23903766      -1.66117952       0.88917845       0.35585187       0.40595995      -5.59356209
C       -3.01236105      -0.79561317      -1.34117305      -3.15410399       1.81054866       0.34696540      -0.09238303      -1.49636598      -0.04287866      -0.26129521       0.32981833      -1.61963897      -0.06411683      -0.00474733      -0.15014934      -0.07944363      -3.04122222       1.80978122       0.28616560      -5.45637746
C        2.49466467      -0.06766233       2.00604320      -0.73565364      -1.10857284      -0.42375237       0.02648394      -0.01705879      -0.10268343       0.01617074       0.08577925      -0.23279560      -0.02536491       0.10393694      -0.01466652      -0.14159869      -0.82304237      -1.11030082      -0.37613296      -5.44474979
C        1.31693316      -0.22159505       2.65474963       0.15154737       1.53982747       0.07510889      -0.02832054      -0.32818905       0.03106631       0.19497271      -0.02558664      -0.26844461       0.02133527       0.24986567      -0.14591816       0.14923783       0.26498805       1.51507755      -0.00698366      -5.51593891
C        1.74297118      -2.12079740       1.66930366       1.59405124       0.50188476      -0.37244293      -0.06598379      -0.50419311      -0.01747688       0.21221387      -0.05787660      -0.11328002      -0.01243642       0.23622649      -0.03087551      -0.33433580       1.54476769       0.47303867      -0.33103729      -5.79083062
N        2.77826738      -1.28399611       1.39054549      -1.46209145      -0.54070133       0.14148384      -0.02240406       0.44744719       0.06833333      -0.13167003       0.00207730       0.15939000      -0.00030653      -0.19562915       0.09155067       0.32734902      -1.35184913      -0.44658108       0.13185241      -4.83862913
N       -3.51301503      -2.03995371      -1.53909445       0.68931389      -1.06463933       0.33267167       0.11380796       0.65650341       0.37255843       0.07335594       0.16956869       0.98056208       0.13304543       0.09697306       0.15064187       0.17964067       0.63507140      -0.99548929       0.39545077      -4.51790472
N        0.57203579       2.23767495       0.96479738      -0.74603838      -1.59553349      -0.46151164       0.10090900       0.43000059       0.19757819      -0.28082601       0.25469297       1.33193339       0.12402568      -0.19783093       0.12127231       0.62180832      -0.74418654      -1.44891421      -0.38683897      -4.75168833
N       -1.15192056       0.47645158      -0.24950129      -0.24234413       0.27566513      -1.05255425       0.08257918       0.44567119       0.26659832       0.03647214       0.26868500       0.48366010       0.09328486       0.03657670       0.05330449       1.29174922      -0.37156052       0.24561885      -1.16700870      -4.76937133
N        0.93590736      -1.54205775       2.55806541      -0.57068479       0.04139290      -1.32041550      -0.05949795       0.32433848       0.05729124      -0.25865810       0.02003795       0.21772278       0.05933984      -0.25068633       0.00779024       0.20641658      -0.59928280      -0.04399595      -1.23552407      -5.00199637
C        2.05226517       3.91284657       0.11159611      -1.37246120       1.52501690      -0.52262503       0.08782706       0.03515547       0.07923167      -0.14510207       0.03419238      -0.09140168      -0.01180352      -0.15604034      -0.06498046      -0.01175446      -1.35752618       1.53951027      -0.49929205      -4.47321012
C       -2.75467491      -3.26321530      -1.77063084      -0.50132328       0.98570150      -0.50121403       0.07928352      -0.32676976       0.10314039      -0.00525983       0.03977571      -0.40832199      -0.07208541       0.07429274       0.02994106      -0.07683425      -0.49898661       0.98215101      -0.53474055      -4.89844396
C        0.53155053      -0.86626297      -2.63945556       0.03182648      -0.14771347      -0.41129962       0.08990227      -0.01021801       0.04737989       0.05609095       0.00952385      -0.00928369       0.18645209       0.11981657       0.07797923       0.14655320      -0.08981312      -0.14534214      -0.41130425      -4.68133655
C        0.43023527       0.92714673       2.99673462      -0.93629801      -0.35707691       2.09732985       0.06084574      -0.09819229       0.06827705      -0.06381430       0.00834988      -0.13199682      -0.10005702      -0.03468380       0.07549228      -0.05976431      -0.97388903      -0.30067479       2.00055349      -4.79172892
C       -0.89551789      -0.30527282      -2.49913859       0.93596405      -0.13664725      -1.00577486       0.10378414      -0.01490737       0.08483944       0.11074667       0.10081543      -0.14939554      -0.06189261       0.03983368      -0.04640220      -0.22870040       0.90998217      -0.05382687      -1.00342163      -4.77688673
C       -0.36862719       1.52753067       1.83826494       1.04721880      -0.85840195      -1.51899791      -0.00954238      -0.29203131      -0.06501364       0.19681944      -0.07606478      -0.15324290       0.17884886       0.16633155       0.03397732      -0.47820910       1.04771563      -0.90745607      -1.39923434      -5.06157570
C       -1.52356362      -0.60869217      -1.17799163      -0.19883239       0.61483508       1.17375624      -0.03366428      -0.18781917      -0.17067907       0.00589204      -0.30721845      -0.43534779      -0.23692111      -0.19341972      -0.20485692      -0.61563124      -0.24549678       0.63013377       1.06143625      -5.25636189
H        2.91619420       0.86419111       1.72468638       0.68236631       0.20703088      -0.01175470      -0.07857183      -0.07148782      -0.00638564      -0.04532783       0.00802217      -0.00450968      -0.00132867      -0.08250949      -0.01586762      -0.14633247       0.66945223       0.21047558      -0.02705167      -4.13259012
H        1.52238655      -3.02491593       1.12657142       0.31372237      -0.10630778       0.32597333      -0.07724185      -0.05099474      -0.01712312       0.03361593       0.01174668      -0.08999259       0.03416813       0.03345977      -0.00618178      -0.05510679       0.29179473      -0.08296657       0.26686609      -4.10808733
H        3.25929332      -1.33753395       0.46917519      -0.47667328      -0.04563985       0.31492269      -0.16258614      -0.31259145       0.03636497      -0.15572808       0.01907248      -0.16678024       0.00331918      -0.07584957       0.00949780      -0.67124723      -0.48687904      -0.10385574       0.31387682      -3.80196737
H       -4.50754738      -2.15934467      -1.50415349      -0.08040109       0.60573089      -0.06094148      -0.19493029      -0.07484081       0.08560359       0.07101459       0.02792471      -0.14453798       0.02572628       0.00511533       0.01552840      -0.18561635      -0.10521580       0.57444325      -0.00026099      -3.62987000
H        1.06461155       1.67366505       0.27784804       0.07035176      -0.22684400      -0.10659861      -0.10213704      -0.13387158       0.10111624       0.12901436       0.14806799      -0.32591037      -0.35117664       0.15603897      -0.35671368      -0.51591452       0.12833701      -0.32248230      -0.22865016      -3.84326843
H       -0.59482610       1.22560072      -0.64714837      -0.27619988      -0.36215320      -0.08153736      -0.17119934      -0.36838884       0.04681520       0.10165409       0.04535133      -0.12794177       0.09740122       0.10232047       0.11119033      -0.07311423      -0.35409407      -0.40247179      -0.07436727      -3.52418439
H       -0.04141098      -1.83297968       2.65026569       0.40542373       0.27659366       0.15913312      -0.18891399      -0.39081125      -0.03969136       0.07063799       0.04880121      -0.22784139       0.06476910      -0.11041934       0.12525241      -0.32810948       0.45061357       0.22248402       0.13554930      -3.69055010
H        1.97458339       5.01304293      -0.05353042       0.19760640      -0.86727595       0.15099464      -0.04407959       0.01214170       0.02908901      -0.01043394       0.05676345       0.18701956      -0.02597285      -0.01889672      -0.04168786       0.00039348       0.19570556      -0.87106038       0.14247227      -3.96487087
H        1.96347427       3.41231847      -0.84987378       0.16139758      -0.13045962       0.06411725      -0.04076851      -0.00607279       0.00241112      -0.00847238      -0.03414361      -0.05250418       0.05103895       0.00727053       0.05200455       0.06906302       0.13261334      -0.11802308       0.05023997      -4.05083509
H        2.99661422       3.69708443       0.56250691       0.51656622      -0.23125784       0.32861584      -0.05560598       0.06706521      -0.04198410       0.02935140       0.00018933      -0.01225847      -0.01611067       0.03627420       0.01128522      -0.00054131       0.49478673      -0.22266393       0.33131327      -4.03140481
H       -2.21384883      -3.08800960      -2.68352294       0.38808176      -0.61563867      -0.49672109      -0.05963538       0.07393037      -0.02121133      -0.03952674      -0.07428264      -0.05828004      -0.08186970      -0.15409668      -0.06004477      -0.03658700       0.39544872      -0.63421794      -0.53744972      -3.96138288
H       -3.45436454      -4.08562994      -1.87219632       0.13712415      -0.04153937      -0.08657604      -0.05856393       0.02416366       0.06641880       0.02086857      -0.14726220       0.02498347      -0.04098783      -0.03445937      -0.00513696      -0.04002429       0.12225675      -0.02335402      -0.07618985      -3.98549397
H       -2.05480576      -3.46662951      -0.99492931       0.45051467      -0.28335491       0.72698849      -0.06103185       0.12400375      -0.01334683       0.06750698      -0.07584928      -0.00121739      -0.00544649       0.06267938      -0.04565750      -0.00467907       0.44820990      -0.29502034       0.73039273      -4.01246627
H        0.48986018      -1.95075583      -2.64270234      -0.02910218      -0.17121761      -0.11983611      -0.05531782       0.03880187      -0.02500603      -0.00872380      -0.01589614       0.12019470       0.00942576       0.00034801       0.03260150       0.02531974       0.00113633      -0.17135255      -0.13508562      -3.89784628
H        0.91942036      -0.55672997      -3.61564136       0.03175227      -0.09021431       0.13338700      -0.05572861       0.06730672       0.00080552      -0.03781591      -0.00491987      -0.00098012       0.01239762      -0.06492944      -0.00929520       0.12222564       0.03806976      -0.09490574       0.12875908      -3.91342002
H        1.02314782       1.72813511       3.45335841      -0.16574952      -0.19444083      -0.21609429      -0.05924549       0.02872938       0.00491805       0.00377974       0.02964909       0.04336104       0.05762323      -0.00032688       0.01863342      -0.04270491      -0.13068403      -0.18568288      -0.23380169      -3.96792876
H       -0.29847068       0.61230522       3.76431584       0.34744716       0.10397793      -0.22532398      -0.05457584       0.04004060      -0.02034627      -0.07695914       0.00646647       0.02572005      -0.04730498      -0.06206841      -0.02211101       0.09132967       0.30666297       0.11377233      -0.22642149      -3.92565357
H       -0.91289186       0.77018946      -2.69967413      -0.07391094      -0.18915005       0.16116148      -0.05050625      -0.02139553      -0.03040728      -0.03932323      -0.05517061       0.11736352      -0.04721634      -0.00445017       0.01027496       0.04509608      -0.03852946      -0.21599759       0.20972446      -3.93836378
H       -1.50532627      -0.76289153      -3.27763581       0.06545246       0.02842122      -0.12384960      -0.06390858       0.11638965      -0.01368081      -0.03058984       0.02532912       0.00219581       0.04381060       0.05133859       0.02091179       0.08641303       0.13226814       0.03204666      -0.08406934      -3.88906272
H       -1.11645079       2.17790222       2.21881151      -0.38762587       0.79709208       0.35334960      -0.06031839       0.07032749      -0.00771912       0.05411757      -0.11018264       0.02761182       0.02769207      -0.02170901      -0.00838807       0.03403134      -0.38093518       0.82278156       0.33092258      -3.87397842
H       -1.17494082      -1.54302669      -0.77003479       0.52943909      -0.25422144       0.18389793      -0.05067197      -0.02822230      -0.02710058       0.01540439       0.02874085       0.11101206       0.00801320       0.07400218      -0.00173088       0.05768232       0.52202170      -0.23849660       0.21766600      -3.71997002
48
Properties=species:S:1:pos:R:3:original_dataset_forces:R:3:LES_q:R:1:LES_BEC:R:9:forces:R:3:energies:R:1 original_dataset_energy=-211.90237426757812 energy=-211.96293327839462 stress="inf -inf -inf -inf -inf -inf -inf -inf -inf" pbc="F F F"
O       -3.09604168       0.49380431       1.59734666       0.42849371      -0.10623172      -0.03897184       0.20369855       0.66392070      -0.00565036      -0.26817638      -0.00914706       1.29741484      -0.33352521      -0.20826565      -0.38185708       0.68484169       0.40429569      -0.16989350       0.02673457      -4.92875630
O        1.17842162       2.35464120       1.74804389       0.15009671      -0.36402372       0.53278154       0.31148201       1.32940172      -0.16463226      -0.46471577      -0.19247531       0.82952272       0.02089097      -0.15243958      -0.09820952       1.02911713       0.08648641      -0.38889062       0.53543629      -4.68964166
O        1.82965589      -0.19020900      -1.52775741      -0.07673461      -0.03282402      -0.23131600       0.23817304       1.30759582      -0.17001053       0.10452495      -0.16811549       0.37972087       0.02947185       0.36607293      -0.06508016       0.77214177      -0.09494919       0.03860977      -0.18331670      -4.75403514
O        0.92987144      -2.62224293       0.80930173      -0.77658230       0.40669686      -0.38113940       0.29037651       0.67725089      -0.39428142       0.11615104      -0.03021378       1.36470659       0.01840468       0.09953189       0.09231471       0.39467685      -0.79472410       0.36950528      -0.39846131      -4.58279162
O        2.29718661       2.96142721      -0.03558120       0.81766641       0.27150467      -0.78069979       0.30716148       1.02785377       0.00533321       0.09866149       0.21063657       0.90254526      -0.46094216      -0.24296892      -0.51588557       1.15319824       0.75855384       0.23499077      -0.75929387      -4.63444508
C       -2.93984795      -0.65685534       2.00609732      -1.47166443       0.20024921       0.03363340      -0.06653225      -1.24152212       0.43507425       0.63897045       0.58902662      -1.49863809       0.14433996       0.56742845       0.25031077      -0.57066137      -1.40435780       0.22477100      -0.03330591      -5.80254481
C        2.17749977       2.26284909       0.97748232      -1.30003333      -0.19236471      -0.25390694      -0.05889563      -1.29147321       0.29447526       0.62113509       0.30740848      -1.01460724       0.60359697       0.70937707       0.72293585      -1.49655064      -1.19417616      -0.20157535      -0.25570105      -5.59530113
C        2.79048920      -0.32832330      -0.78375632      -1.36437118      -0.21846277      -0.23348762      -0.07847267      -1.94237598       0.36022915       0.01773528       0.39453304      -0.16422976      -0.03221510       0.02907591      -0.00488386      -1.00550726      -1.36817217      -0.23062620      -0.17615221      -5.73268269
C        0.46456954      -1.48309708       0.87182748       0.36737564      -2.55948687      -0.07437214      -0.08272776      -1.08250236       0.01652738      -0.19463809      -0.17758329      -1.79813289      -0.09106607      -0.19970322      -0.19979775      -0.16491434       0.42996832      -2.64128154      -0.06004455      -5.67029327
C       -1.21837783       2.11194634      -0.59370023       0.61879700      -1.73159182      -0.67513043      -0.03346717      -1.24974296      -0.35084305       0.18263017      -0.38879742      -0.62720790      -0.43434078       0.35261452      -0.57172782      -1.18402762       0.58704968      -1.72308758      -0.71223606      -5.80410461
N       -0.08455528       2.19247031      -1.22733092       0.78502762      -0.38364494      -2.10619569       0.09394695       0.79538080       0.05133337      -0.27722392       0.09985729       0.32057037       0.10136000      -0.27644755       0.04667124       0.60372874       0.63637308      -0.50834697      -2.07752894      -3.86219403
N        4.02442122      -0.57720804      -1.22361994       2.05610299      -0.23691724       0.09694346       0.08051638       1.01397026      -0.16814430      -0.14770395      -0.18383421       0.15415114       0.05904956      -0.37740969       0.10741972       0.61732613       2.06216490      -0.21411793       0.08308176      -4.78694445
N       -2.21052766       1.36514747      -1.04192233      -1.12245083       0.20498180      -0.13581994       0.06059214       0.72811797       0.30656627       0.09762169       0.33677395       0.59528980       0.26934570      -0.07501921       0.35630513       0.51174231      -1.22803483       0.30757480      -0.15099990      -4.54722117
N        1.22582245      -0.44306105       1.16461587       0.87072521       1.27192545      -0.34436285       0.08549102       0.93653919       0.41846958       0.12832185       0.25525288       0.82705955       0.10709555       0.08368020       0.19143448       0.19034329       0.73740470       1.32467457      -0.36689860      -4.66944249
N       -1.97358108      -1.49491596       1.60743296       0.63249993      -1.00519311       0.45414165       0.07387703       0.88969336      -0.34169139      -0.39736525      -0.26416024       0.70339766      -0.01780849      -0.47619532       0.03536395       0.57804018       0.60536056      -1.06977107       0.53854113      -4.62502267
N       -1.28462040       2.63077164       0.58720589      -0.58642828       1.63763118       2.46309996       0.09457331       0.46526329       0.05555117       0.00496161       0.08918388       0.31226959       0.20511691      -0.11413258       0.31964225       0.80565212      -0.67701541       1.65864954       2.52494411      -3.86806621
C       -3.98429203      -1.27108097       2.94033003       1.00277317      -0.00447929       0.08914520       0.09489027       0.09547433       0.07155973      -0.17912094      -0.03074270      -0.03918095      -0.03328251      -0.15269293      -0.09636221       0.00465867       1.01265588       0.03268071       0.10473961      -4.46966122
C        4.42491341      -0.82976019      -2.61882019       0.48550764      -0.12641947       1.16501701       0.07735577      -0.05602601      -0.00408934       0.04529229      -0.02392061      -0.13911174      -0.03038495       0.08124045      -0.04670576      -0.40581575       0.46926954      -0.18714890       1.13813652      -4.78355535
C       -2.20963812       0.39003035      -2.09747124      -0.19815396      -0.81653655       0.28039125       0.03491187      -0.05873816      -0.01655474       0.13183334      -0.08674609      -0.32302462      -0.19850457      -0.09078797      -0.16293553      -0.39987621      -0.13784944      -0.82175657       0.17116087      -5.13891586
C       -2.55584741      -0.99647844      -1.55675161       0.70661211      -0.61144149      -0.14221509       0.09849673      -0.11519808       0.07984498       0.00351490       0.05534339      -0.19970681       0.07509390       0.05134368       0.13134872      -0.13579721       0.70122373      -0.66067729      -0.16273083      -4.77103277
C        3.13141894       1.09554338       1.23184562       0.76441789       0.57230300       0.24019612       0.07078544      -0.03097855      -0.17095888      -0.02686116      -0.16026454       0.02854684      -0.03710620      -0.05425542      -0.07612854      -0.05349658       0.72943801       0.65652873       0.23961134      -4.58074942
C       -1.42874837      -1.73888159      -0.80051661       0.79933298       0.59706217      -0.46240237       0.10170466      -0.11835819      -0.01923879      -0.07858544      -0.00110337      -0.09044741      -0.00379410      -0.01890350       0.01453611      -0.12947911       0.85268072       0.69974033      -0.40578507      -4.71040387
C        2.61591101      -0.26073688       0.73785603       0.06714977      -0.07712157       0.49023882      -0.01642623      -0.66164853      -0.16412304       0.04247626      -0.32527092      -0.25115197      -0.08822773      -0.04995034      -0.00325136      -0.10724581      -0.02265272      -0.11240720       0.38247124      -5.10744316
C       -1.00124562      -1.15759325       0.55773509      -0.65766752       0.17151649       0.20190890      -0.01474925      -0.21741186      -0.07574038       0.25726518      -0.16422927      -0.18585357       0.01204078       0.27303353      -0.02103138      -0.47848834      -0.69584781       0.24654856       0.03319817      -5.07191491
H        0.68634939       2.61587334      -0.73713028       0.96424127       0.30958086       0.04481860      -0.07934567      -0.60336579      -0.13214876      -0.24409640      -0.19299328      -0.21815095      -0.07341719      -0.21107708      -0.05046488      -0.19379688       0.97857671       0.43209276      -0.00949717      -3.82173190
H        0.14885738       1.56469476      -2.00594902      -0.21578573       0.71092820       0.84144706      -0.15268748      -0.22586018       0.05044795      -0.01130550       0.04659224      -0.22983598      -0.10202018       0.02492255      -0.02310249      -0.27868533      -0.11524207       0.59995814       0.91111855      -3.57548741
H        4.79062891      -0.66827333      -0.55456769      -0.80774337       0.09071130      -0.21437079      -0.19901946      -0.24247603       0.00471070      -0.05099461       0.05145498      -0.18909931       0.00670489       0.03262986       0.00236297      -0.19050980      -0.80475374       0.11034552      -0.23398986      -3.57504799
H       -2.95145082       1.27384877      -0.37280294      -0.25446710      -0.19515930       0.12903999      -0.16727528      -0.26895796      -0.02118536       0.03381095       0.01699944      -0.19587154       0.12462607       0.27955875       0.03422133      -0.36191787      -0.13514624      -0.18385823       0.08763044      -3.61648770
H        0.72235811       0.38908544       1.38194370       0.15737000       1.01089239      -0.00291001      -0.16869740      -0.10060325       0.02161509      -0.00888445      -0.02284214      -0.45730955      -0.09675888      -0.00616275      -0.08219908      -0.19260337       0.13862941       1.09584539      -0.01644328      -3.60926475
H       -1.96007371      -2.42268801       2.05761003       0.16598421       0.90093899      -0.69513184      -0.20084578      -0.08033936       0.04340240      -0.10359136      -0.05305802      -0.28859583       0.07502626      -0.04823418       0.02973301      -0.16229151       0.18238685       0.92234646      -0.69199037      -3.59961507
H       -0.39992264       2.98834944       0.98075402      -0.22403894      -0.37143523       0.15387204      -0.10860749      -0.62016973       0.14486448      -0.20405851       0.07475675      -0.19713854       0.02253699      -0.23766355       0.06367382      -0.23669428      -0.15371190      -0.35591480       0.11936083      -3.79793771
H       -1.98206127       2.29678202       1.25011253       0.26528487       0.14849712      -0.46101776      -0.13617368      -0.32292039      -0.10038831       0.13085929      -0.16836137      -0.27536679       0.10031074       0.07269897       0.09289887      -0.24380526       0.37253481       0.08260129      -0.38415022      -3.64344222
H       -3.50970960      -1.43987131       3.90418816       0.02528347      -0.41112864       0.05833773      -0.05036508      -0.03950778      -0.02800065       0.06089947      -0.00931531      -0.01466146      -0.01390509       0.04571057      -0.00784796       0.05705538       0.02867187      -0.41847020       0.06461370      -3.95447565
H       -4.78448391      -0.58532065       3.14057589      -0.30558401       0.31602189      -0.31611696      -0.04741652       0.11617688      -0.01674575      -0.06758727      -0.04757586       0.01685418       0.01218571      -0.04291682       0.00666101       0.01352890      -0.30189704       0.32036035      -0.35025095      -4.02259804
H       -4.34916735      -2.20052195       2.50694609      -0.04597729      -0.00248592       0.23243819      -0.05162172      -0.01701911       0.02275376       0.02532534       0.03764647       0.06618048       0.03236091       0.04671575       0.04236285      -0.03612596      -0.04963613      -0.00124912       0.22707118      -4.01938768
H        3.52735806      -0.79604721      -3.17906475      -0.63012624       0.14341438      -0.80191225      -0.04223198      -0.07472243       0.02639104       0.12208699       0.01555169      -0.01158350      -0.00771210       0.01753972       0.00529548       0.06556523      -0.63164393       0.13424905      -0.77881302      -3.98135622
H        4.84647751      -1.84513235      -2.66860867      -0.09577829       0.39431599      -0.12543426      -0.05667955       0.02283281      -0.03805699      -0.04869815      -0.07026849       0.05638437       0.05462909      -0.03331814       0.01881095       0.02176901      -0.11060782       0.40037459      -0.13255908      -3.97324509
H        5.17431068      -0.09885082      -2.96932983      -0.51477063      -0.28250125       0.16034788      -0.05890844       0.06475363       0.02444423      -0.07587992       0.06259569       0.00297267      -0.03741096      -0.07119199      -0.00661280       0.03484119      -0.50200675      -0.26700288       0.18842425      -4.03125241
H       -1.24818861       0.27334031      -2.55378485       0.53554636       0.44046140      -0.37643179      -0.06048115       0.01780407       0.02871785      -0.06605253       0.03881900       0.02960617       0.00315886      -0.02026287      -0.02859770       0.05272751       0.50997842       0.41549533      -0.36144921      -3.84430137
H       -2.95106125       0.65765655      -2.83847570       0.02513527       0.14484221      -0.30786014      -0.06731526       0.02838616      -0.03175012       0.07636499      -0.00677364       0.02359589      -0.02092472       0.13995000      -0.05716714       0.15697725       0.03373319       0.13722720      -0.30238820      -3.87635996
H       -3.41110826      -0.89308441      -0.92427242      -0.78767550      -0.17388825       0.33901832      -0.05596328       0.09213905      -0.03672181      -0.03999310      -0.00755439      -0.00028689       0.01155428      -0.10366261      -0.01909078       0.00827284      -0.76649105      -0.13504094       0.33072300      -3.96482017
H       -2.80811834      -1.63154650      -2.42076492      -0.13494261       0.25606668       0.35948431      -0.05939201       0.03471615       0.01730458       0.05185204       0.02788640       0.06866963       0.03633208       0.04900878       0.00583176       0.06769079      -0.11594476       0.24924135       0.37699296      -3.88184604
H        4.12798834       1.32438886       0.81110859      -0.59963852      -0.24347907       0.02421664      -0.04966830       0.24310305       0.04090477      -0.01797607       0.01243851       0.04882419      -0.00392135      -0.04053506      -0.00697418       0.00907198      -0.57770212      -0.22934019       0.02877184      -3.98577112
H        3.24290442       1.03526354       2.29514170       0.11062338      -0.13435006       0.64367002      -0.05508494       0.03248624       0.00059102       0.02557590       0.00945504       0.02325300       0.01062644       0.07806705       0.01665039       0.11777204       0.10092965      -0.15412395       0.65854273      -3.85417858
H       -0.52558339      -1.73460257      -1.42529893      -0.21732500       0.02258546       0.01579551      -0.04636216       0.10720809      -0.02040239      -0.02352784      -0.02893817       0.01505573       0.04815541      -0.05575529      -0.02494956       0.08116798      -0.21157100       0.00919681       0.05121824      -3.94591555
H       -1.68558192      -2.77946043      -0.68414247      -0.14210191      -0.30934793       0.16248128      -0.05929026      -0.03290288      -0.02250229       0.00785129       0.00712570       0.13889183      -0.00538826       0.00070555      -0.01885676      -0.00153952      -0.17330174      -0.30763441       0.16030319      -3.96877244
H        3.23833871      -1.04554725       1.17449403      -0.13810858       0.04842810      -0.01437270      -0.05721341       0.08241051      -0.03125751      -0.02041023      -0.01059059       0.11887597       0.00958441      -0.02081549      -0.01340203       0.00268788      -0.11360423       0.00296385      -0.01848601      -3.82790224
H       -1.04191887      -0.08652502       0.50142193      -0.13316105       0.31892115      -0.04189552      -0.02984598      -0.07765793       0.00400622      -0.00827498       0.08553753       0.08483391      -0.07094238      -0.02013844      -0.00366348      -0.00476508      -0.03732582       0.27564329       0.03964587      -3.69214125
48
Properties=species:S:1:pos:R:3:original_dataset_forces:R:3:LES_q:R:1:LES_BEC:R:9:forces:R:3:energies:R:1 original_dataset_energy=-211.62872314453125 energy=-211.58271586965552 stress="inf -inf inf -inf inf inf inf inf -inf" pbc="F F F"
O       -1.92112970       3.75077629      -2.54551673       0.20540871       0.19811977       0.11094657       0.28715721       0.85088382       0.19191201      -0.39557018      -0.04658628       0.70814251      -0.38294095      -0.07791060      -0.55031938       0.92373944       0.22569443       0.20936870       0.10531423      -4.62346595
O        3.76340032      -1.17748916       0.55068290      -0.23529245       1.22063601       0.16039306       0.30817905       0.83287728      -0.24074992       0.22745002      -0.61662730       1.57853769      -0.01779213       0.21610908       0.26407920       0.83456358      -0.19294429       1.30214128       0.21005923      -4.62512981
O        0.43448144      -1.77202797       1.61802435       0.08103678      -0.27643830       0.51341873       0.20428675       0.45260925       0.14294793       0.17008880       0.10552601       0.93635158       0.44202321       0.10130673       0.31708099       1.24493103       0.07745773      -0.22206314       0.58523675      -4.84974669
O       -1.55771732       1.50517178       1.64107227       1.39405501      -0.67210972      -1.12776971       0.28249487       1.03710294      -0.26154691      -0.30837759      -0.14096174       0.40216110      -0.00089438      -0.46300549       0.08108343       0.97052868       1.35636472      -0.67443997      -1.10598375      -4.66284546
O        2.87505436       0.55570346      -0.55606604       0.13438539       0.18851720       0.25079769       0.26546332       0.83043502      -0.29355019       0.09817912      -0.25754329       0.96469333      -0.02764084       0.17776615      -0.28929401       1.27222616       0.15087789       0.15676567       0.27562518      -4.78665172
C       -2.74573159       3.30476713      -1.76072669       0.39408207       0.02554471      -1.49336219      -0.06910289      -1.20999949       0.20076578       0.14782206       0.22729974      -0.96336458       0.91705110      -0.03635884       1.06584996      -1.20563897       0.37222135       0.02010751      -1.46465854      -5.83738873
C        3.21484733      -0.03193837       0.50636768       0.16240063      -1.77165258      -0.19270377      -0.06497266      -0.68909504       0.74712432      -0.12169872       1.08824596      -1.65179377       0.29755579      -0.40912061       0.24880804      -1.64124292       0.18041111      -1.79405953      -0.28273215      -5.59022016
C        0.86310142      -0.98608458       2.45405960      -0.61606675       1.23340809      -1.52914429      -0.07048716      -0.22134433      -0.34198858      -0.31538338      -0.21164617      -1.01129898       0.04669020      -0.34763865      -0.07430628      -1.91413004      -0.62829844       1.22510765      -1.55119000      -5.65374437
C       -0.71457458       1.40295696       0.73034978      -1.18756831       0.69885141       1.58227468      -0.07242343      -1.69881454       0.61427686       0.30940152       0.41543108      -0.23573757       0.13426131       0.36991024       0.03224787      -1.07659220      -1.19603135       0.72464821       1.63220533      -5.65081815
C        1.22530127      -2.22987056      -1.48736477      -1.15771115       0.72215432       0.43866849      -0.02937602      -1.35286168      -0.25635819      -0.09994996      -0.37384618      -0.46702683       0.67173407       0.10434382       0.29656888      -1.05757001      -1.17424189       0.71582510       0.40430914      -5.79870102
N        1.89216137      -2.75070572      -0.53106296       0.81492013      -2.42950797       3.30072713       0.11066667       0.58651720       0.01091525       0.19680901       0.05357088       0.31046604      -0.22369348       0.07933683      -0.09350101       0.81638026       0.87299977      -2.49884846       3.24464188      -3.79281800
N        0.99437815      -1.23479617       3.76062250       0.23917904       0.80875254       0.13749555       0.06731794       0.14682077       0.15061159       0.02098540       0.05681631       0.53759184      -0.33147313       0.16058690      -0.12834721       1.13332790       0.23831071       0.79573977       0.14960729      -4.91549303
N       -0.07802865      -2.45339608      -1.60365868      -0.78682762      -0.12435656      -1.27171516       0.05793825       0.94217524       0.21787403       0.20031410       0.05309721       0.28837428      -0.21627956       0.08723278      -0.06955503       0.34375103      -0.83969486      -0.19235432      -1.30865512      -4.33899012
N        0.58273697       1.01815510       0.87556040      -1.08150291      -0.34262249      -0.31432384       0.08939070       1.22938521      -0.39333309      -0.01739678      -0.31756843       0.26422236      -0.16118738       0.10327907      -0.15727074       0.61587602      -1.02390626      -0.34104898      -0.34757403      -4.79424073
N       -2.41470647       2.39918542      -0.83221257       1.13431323      -0.70579767       0.61057526       0.08867498       0.71679655      -0.44459929       0.19739353      -0.25494318       0.71715950      -0.47094439       0.13767711      -0.54985881       0.75329606       1.16429917      -0.69334672       0.55486154      -4.66844395
N        1.90057302      -1.39392066      -2.19595742       0.53713578       1.23678088      -2.71859360       0.08323378       0.48517694       0.24093176      -0.11098617       0.28735233       0.56404984      -0.30111412      -0.25011578      -0.07745825       0.65897434       0.46059343       1.27350054      -2.73223811      -3.90742818
C       -4.19847965       3.69846439      -1.89464414      -0.02640560      -1.30283475       0.33210447       0.08796196       0.24812820      -0.15259680       0.05670781      -0.03435443      -0.12336564      -0.01943904       0.00610510      -0.02264467      -0.10402743      -0.03163891      -1.31941970       0.32705744      -4.47283446
C        0.83508939      -2.54456902       4.32784653       1.61489141      -0.63885975       0.52071637       0.08031499      -0.11065747      -0.13915165       0.20812416      -0.03145963      -0.35950495       0.09064689       0.01718663       0.08982050      -0.17746648       1.54993231      -0.63968211       0.55338640      -4.77866631
C       -1.07965970      -1.74195790      -2.42811942       0.00662135       0.03580451       0.75431931       0.02752620      -0.25646379       0.06855595      -0.14868376       0.14049226      -0.19788802       0.07957834      -0.16009962      -0.00269839      -0.40489940       0.03698503       0.02021001       0.72575646      -5.01593782
C       -1.62394142      -0.51236993      -1.69929755       0.40401924       1.09835887       0.22056194       0.10055819      -0.12104689      -0.01600553      -0.02595667       0.01873330      -0.16604148      -0.01169892       0.04787335      -0.03063299      -0.10001218       0.42280995       1.10708471       0.19280685      -4.74950759
C        2.77656054       0.58799094       1.83017707      -0.26006550       0.87214768       0.58163750       0.07213314      -0.07578420      -0.02193167      -0.02224095      -0.10679375      -0.01231347       0.06226623      -0.01660129       0.08927271       0.13094398      -0.30133860       0.92415919       0.56139094      -4.52678820
C       -0.72428560       0.75284702      -1.72296643       0.44719103       0.05398275      -0.25594783       0.09069693      -0.14051816      -0.05838852      -0.01990838      -0.08893813      -0.14481585      -0.04110629       0.04717263      -0.05824264       0.00921432       0.49450790      -0.04360276      -0.23509015      -4.68880841
C        1.23454142       0.48594171       2.03684545       0.08364263      -0.02387609       0.59128094       0.00267912      -0.47441759       0.06528937      -0.24273542       0.05702627      -0.12014517       0.08151158      -0.19991643       0.15611764      -0.42141324       0.09366963      -0.09308461       0.64202293      -4.99628786
C       -1.05042005       1.86523819      -0.69117010      -0.26268300      -0.44840416      -0.46168551      -0.01023885      -0.52994191       0.23475756      -0.06931647       0.15650474      -0.21515422      -0.02739235      -0.06227740       0.07725255      -0.13798921      -0.30788149      -0.47061335      -0.45039088      -5.05349092
H        1.35050273      -2.94906521       0.31749073       0.53321934       0.06801890      -0.46698186      -0.12698865      -0.22271978       0.07109252       0.19101860       0.07031975      -0.29669894      -0.06702911       0.17474303      -0.06109211      -0.40792234       0.51677068       0.05489665      -0.49506024      -3.56537324
H        2.83286405      -2.36681175      -0.33099318      -0.32025781      -0.03441538       0.06502185      -0.07823284      -0.37355094      -0.35439482      -0.23613342      -0.22063759      -0.42007505      -0.22479861      -0.07643197      -0.33253221      -0.27584665      -0.39915968      -0.00566995       0.08015220      -3.85735715
H        1.35604382      -0.47645563       4.33479214      -0.21941489      -0.54502481      -0.27384555      -0.19837272      -0.19400672      -0.01764040      -0.02777846      -0.01813954      -0.18886965      -0.03999145      -0.05941156      -0.02800857      -0.30000850      -0.19513255      -0.55641004      -0.32637411      -3.57447414
H       -0.44727302      -3.18000579      -1.02676499      -0.02135533      -0.11429947       0.21128368      -0.18076248      -0.20566911      -0.07595289       0.03336972      -0.07834828      -0.21708256       0.00278124       0.04635040       0.04383610      -0.21755287       0.01769373      -0.04341712       0.23983418      -3.61272057
H        1.17203903       1.06012630       0.06060410       0.32493180      -0.08898136      -0.20902108      -0.15903988      -0.43791579       0.05920610       0.22324561       0.05434687      -0.16926051      -0.06856015       0.31629481      -0.02031336      -0.14301419       0.38916832      -0.11459796      -0.19808993      -3.61409505
H       -3.12683511       2.03016567      -0.25730166      -0.42106652      -0.34350353       0.75697374      -0.19512516      -0.14881251      -0.06560757       0.05473320       0.00316148      -0.24280012       0.03631980       0.01810878       0.03738578      -0.23916642      -0.43263287      -0.35838563       0.75344530      -3.62188366
H        1.44975519      -0.95410675      -2.95486546      -0.27316085       0.47783050      -0.70668960      -0.15985057      -0.20162964       0.07140121      -0.01027973       0.04085091      -0.18721829       0.04820948      -0.05305890       0.01515329      -0.24340937      -0.35442666       0.52929595      -0.66582213      -3.46552214
H        2.62448931      -0.84970748      -1.74381435       0.33703858       0.36577111       0.29107392      -0.10220426      -0.29912290      -0.08959767      -0.06108205      -0.10720621      -0.40457773      -0.22475462      -0.08504333      -0.23896284      -0.38366201       0.42396492       0.33639444       0.29248027      -3.75773383
H       -4.85760927       2.83625031      -1.57566619       0.48755503       1.09481382      -0.65308541      -0.04758998       0.02889971       0.06602783      -0.02551390       0.09473170       0.00706303      -0.00234641      -0.01572503      -0.04327706       0.00091093       0.50425022       1.09694265      -0.66694908      -4.00690529
H       -4.32805252       4.04555798      -2.93190360      -0.26438928      -0.28055185       0.66455877      -0.05032417       0.02201574      -0.03071923       0.02752042      -0.05930636       0.02245754      -0.05293989       0.06434397      -0.04605956       0.07768447      -0.26153346      -0.28829797       0.66650859      -4.02266342
H       -4.32827950       4.49577856      -1.19108665      -0.46043280       0.61087793       0.22577058      -0.05508601      -0.03895781       0.00808721      -0.02293084      -0.09056654       0.10213409       0.01798173       0.01057884       0.02615816       0.02866997      -0.46247801       0.61878293       0.22603767      -3.93830674
H        1.85276842      -3.07120681       4.31579351      -1.58705854       0.31691596      -0.10913444      -0.05325457       0.04716296      -0.05321972       0.00229309      -0.03514522       0.05104084      -0.05565905      -0.00002662      -0.03388779       0.01392330      -1.59211984       0.32611883      -0.11556707      -3.95031658
H        0.06753778      -3.09185386       3.78922558       0.22308829      -0.06310777      -0.04401572      -0.04575789       0.00015524       0.10772350      -0.08343437       0.02337682       0.05149000       0.00691060       0.02933530       0.06649495      -0.06789510       0.23700770      -0.06816953      -0.04889891      -4.03001720
H        0.54587305      -2.43902421       5.37184381      -0.09077001      -0.06847787      -0.07467464      -0.05827311      -0.02266815       0.02498159      -0.05168169       0.00756816       0.00035473       0.00082263      -0.01202826      -0.07617772       0.13573842      -0.07967517      -0.06257933      -0.06466496      -3.97289170
H       -0.73804259      -1.47479582      -3.43461776       0.27950224      -0.20980603       0.30085149      -0.06698819       0.02160719      -0.00482528      -0.05697610      -0.00115393      -0.02619170      -0.02451014      -0.03817702       0.02023608       0.10161364       0.31151341      -0.20996506       0.35275092      -3.98947277
H       -1.88279939      -2.47167373      -2.55408287       0.07968926       0.20162736      -0.12897512      -0.06307239       0.06944090      -0.00388013       0.04181822       0.03300302       0.07752832       0.04217527       0.06002196       0.03357807       0.04954509       0.09104406       0.23810611      -0.09921699      -3.85165838
H       -1.78789949      -0.70910490      -0.65445626      -0.25020310      -0.68466467       0.40880504      -0.06587140       0.02005822       0.05696005       0.00570079       0.02550649       0.00963780      -0.01894900      -0.05242394      -0.01456576       0.04103315      -0.20545567      -0.63110480       0.36299673      -3.96284279
H       -2.58671236      -0.22866753      -2.13235116       0.08315890      -0.10081623       0.02431490      -0.06385274       0.13000835      -0.02266174       0.03824128      -0.05185727       0.04351355      -0.00550624      -0.02640800       0.01176314      -0.04219816       0.07902745      -0.08967658       0.02202789      -3.95594599
H        3.22109270       0.08598322       2.68987846       0.27882811       0.03897534      -0.30978718      -0.05355188       0.06679495      -0.01470764       0.05154005      -0.03118221       0.00418944      -0.04319200       0.15357518      -0.03092941       0.20129924       0.26096985       0.04494825      -0.30164601      -3.97414621
H        3.05819321       1.66164827       1.85145187      -0.20440595      -0.65609211      -0.04234664      -0.05155210       0.03022579       0.03124136       0.00097221       0.11141258       0.12603515       0.06212341       0.01933527       0.02542233       0.03241837      -0.19548510      -0.64035822      -0.03687974      -3.96236803
H       -0.86735350       1.19108200      -2.69332910       0.17877260       0.41608024      -0.50066912      -0.05509648      -0.01163089       0.00675290       0.03441627       0.02013819       0.01341791      -0.05732268       0.00596394      -0.00018357       0.11211087       0.14174920       0.43489127      -0.46697490      -3.92593938
H        0.37001836       0.57934052      -1.61880803      -0.91796726      -0.35258317      -0.13712958      -0.03430110       0.10874602      -0.02974323      -0.03130970      -0.01638829      -0.00610248       0.02177234      -0.02321946       0.02116812      -0.03577579      -0.97922871      -0.38406916      -0.14526144      -4.01324993
H        0.91957873       1.10702443       2.87478375       0.24520408       0.06070241       0.19154364      -0.05325202       0.07479512      -0.02628545      -0.02213472      -0.04295911       0.01701288       0.00804361      -0.04295424      -0.02185016       0.12731726       0.24062889       0.06122254       0.16304820      -3.78675864
H       -0.35345170       2.67145038      -0.88866735      -0.05942584       0.23734033      -0.22798897      -0.04880896       0.05881067       0.01999942      -0.01068559       0.08964701       0.02970221       0.04869751      -0.04658490       0.03259175      -0.03258407      -0.05761974       0.21900704      -0.21364530      -3.74902660
42
Properties=species:S:1:pos:R:3:original_dataset_forces:R:3:LES_q:R:1:LES_BEC:R:9:forces:R:3:energies:R:1 original_dataset_energy=-191.84146118164062 energy=-191.93782285981416 stress="inf -inf inf -inf inf inf inf inf inf" pbc="F F F"
O       -4.41914558       2.11135721      -1.35079563       0.34061673       1.42750871      -0.79902071       0.28736451       0.78509608       0.02902051       0.00923879      -0.37452734       1.25987536      -0.38232285       0.08599164      -0.31641663       0.41703616       0.32966239       1.45396592      -0.79424650      -4.59468515
O        0.88582182      -0.62711394      -2.66358566      -0.91016865      -0.19813852      -0.33045533       0.38429648       1.13509244      -0.52643426      -0.23111627      -0.26517068       1.17314819       0.37780305      -0.12325644       0.21395659       0.57990195      -0.89142712      -0.20090029      -0.34722905      -4.39586977
O        2.65406156      -1.03624928       2.45317698      -1.35481215       0.55446959      -0.45019510       0.26904458       1.21992722       0.20382065       0.31979686      -0.09131328       0.73490689      -0.18818904       0.38855706      -0.01395382       0.54043010      -1.29833794       0.54965871      -0.46949020      -4.71167436
O       -1.65692735      -0.58008617       1.29399061      -0.36588901      -0.15702453      -0.25635368       0.22948961       0.99002615       0.11271031      -0.05202565       0.22514290       0.71750990      -0.31406658      -0.24287895      -0.39094359       0.75507769      -0.38886179      -0.19246373      -0.23343953      -4.80367929
O        0.34594038       1.41971076      -2.12122440       0.19388539       2.18265653       0.42327988       0.23867927       0.88030048       0.27442769       0.16448039       0.08624621       1.26041591       0.11333642       0.03019654       0.15298286       0.73936598       0.11451572       2.10279448       0.36800103      -4.79961307
C       -4.45421839       0.96846426      -0.96682936      -2.18273592       1.40101397      -0.02734354      -0.04674540      -1.70414056       0.36370668      -0.19542801       0.69722828      -1.51784488       0.56827091      -0.14258581       0.51671093      -0.24276961      -2.15250766       1.44027077      -0.03292525      -5.97296582
C        0.02705508       0.23884284      -2.40351248       1.29196286      -1.18074286       0.83661717      -0.05052308      -1.47220375       0.14749605       0.25212118       0.17908569      -1.87878191      -0.40008556       0.23150965      -0.38958324      -0.22365554       1.25336856      -1.15861241       0.85592189      -5.60478423
C        1.51934445      -0.88248205       1.94900966       1.77595568      -1.14370251       0.72866052      -0.09420514      -1.42325227      -0.31539228      -0.54898925      -0.10539198      -1.23412000       0.06386339      -0.60840020      -0.12843096      -0.35591126       1.77795020      -1.14191650       0.68636001      -5.59986822
C       -1.17171812       0.16101420       0.44212675      -1.77699649      -0.32458350      -0.07763109      -0.06944602      -1.46114643      -0.52839960      -0.10254003      -0.64602811      -0.64590738       0.50726226      -0.04223592       0.53167370      -1.00757108      -1.68622523      -0.28857768      -0.12096867      -5.61502029
C        4.17220116       0.48591447       0.53403270      -0.67690003       0.94734895       0.63145572       0.02677654       0.08501575       0.04641012      -0.09588043      -0.01064298      -0.06762341       0.03087526       0.15378247      -0.02536134      -0.30221333      -0.64512703       0.96929403       0.57112441      -5.42554173
C        3.05083966       1.28797913       0.40643024       0.52316755      -1.72640812      -0.03239030      -0.02477329      -0.23082287       0.14012095       0.14292894       0.50362219      -0.00796313      -0.03545937      -0.14326900      -0.05786539      -0.33955299       0.54282475      -1.71801580       0.01168370      -5.41252115
C        3.66367126       0.63669634      -1.61631656      -1.31656444      -0.38660115      -0.36389163      -0.06067622      -0.50050426       0.22384689      -0.11069925       0.46647442      -0.22699667      -0.13329948      -0.14503297      -0.02291692      -0.14239570      -1.27503903      -0.42852762      -0.34668082      -5.88087365
N        4.55586052       0.15325028      -0.75261122       0.28826374      -0.57878226      -0.07578692      -0.04209973       0.34880496      -0.24689312       0.05114351      -0.52774155       0.09078202       0.10615340       0.07212746       0.01735075       0.19574491       0.26085923      -0.50943112      -0.09201662      -5.01801139
N        0.73035383      -1.93202376       1.67591429      -0.21484299       0.61853743      -0.08907835       0.10657386       0.65613716       0.16204635       0.21834376       0.25850131       1.03780065      -0.00519039       0.20026929       0.01506244       0.22802987      -0.20990815       0.58385089      -0.08984040      -4.85441656
N        0.03158084       0.69059825       0.58689868       1.38336647       0.66594791      -0.45885763       0.08178491       1.11794592       0.35498183       0.15565983       0.35565112       0.50397434      -0.27650353       0.27054369      -0.17708928       0.63314790       1.35756796       0.62531402      -0.45785797      -4.77651996
N       -3.41338778       0.25665361      -0.67630416       3.37273288      -3.28320193       1.30536950       0.07463231       1.25025247      -0.41110755       0.15814415      -0.41803942       0.62811671      -0.21744008       0.11780056      -0.20909248       0.29279879       3.33521485      -3.30680161       1.28855271      -4.62849339
N        2.74275970       1.34761596      -0.96475530       1.54242635      -0.55799705       1.68748009      -0.05748925       0.59708378      -0.23768534       0.12182237      -0.41554808       0.08488630       0.04247537       0.15909172       0.12086195       0.28200992       1.52163809      -0.62607371       1.66117349      -4.94222270
C       -5.78174448       0.32281649      -0.67222238      -1.09610295      -0.02731545      -1.00590539       0.09576151       0.23932349       0.06414085      -0.01086260       0.08743586      -0.01587622      -0.05323874      -0.07000671      -0.05614010      -0.12202695      -1.10285819      -0.04071899      -0.99479204      -4.41455570
C        1.01022816      -3.29560375       2.07952809      -0.32385656      -0.66665536       0.26005459       0.08225102      -0.12850739       0.03995391       0.01829678       0.04042091      -0.44839746       0.09188207      -0.01939008       0.19474339      -0.21176539      -0.36249663      -0.64507744       0.24936038      -4.75699417
C        2.11518049       1.57639849       1.55200052      -0.38204354       0.57649553      -0.51931596       0.05792553      -0.14003455      -0.05833463      -0.00856867      -0.23971139      -0.11625225      -0.10589405      -0.04344551       0.00575403      -0.08233828      -0.39758477       0.60253870      -0.48989405      -4.80390419
C       -1.44293368      -0.09151644      -2.14927769      -0.01706645      -0.38141689      -0.62467563       0.06473576       0.25692296       0.05317550       0.02439492       0.04710982      -0.07351851       0.01072990      -0.05961921      -0.03019662      -0.09043847       0.06771837      -0.30870941      -0.54580462      -4.61949295
C        0.97423935       0.53172767       1.71187449      -0.58249700       0.37196752      -0.56403410      -0.02510324      -0.42397249      -0.13322302      -0.20627212      -0.08799398      -0.25649523       0.06078703      -0.19994760       0.02184848      -0.41524092      -0.65087276       0.45486642      -0.54165188      -5.07179699
C       -1.97743976       0.56851459      -0.85634911      -0.38926619       0.54077798       0.19774537      -0.00371573      -0.49756887      -0.02153971       0.09377993      -0.04752992      -0.22171327      -0.09634246       0.05737416      -0.11695498      -0.20224330      -0.39032470       0.51365207       0.12673062      -4.98871096
H        4.55237389       0.10530418       1.50321269       0.04336792       0.28008196      -1.31487894      -0.06403053      -0.04139582      -0.06846605       0.06592065      -0.07640899      -0.07044375       0.01367292      -0.00280705       0.00288996      -0.00776081      -0.00099878       0.27285139      -1.32547058      -4.15793413
H        3.49261570       0.19389838      -2.59440804       0.23726915       0.73223221       0.00420112      -0.07136837      -0.07831785       0.00135945      -0.06173960       0.02995858      -0.06628955      -0.00620081      -0.00392458       0.00788530      -0.06271553       0.23614982       0.69314449       0.03760262      -4.10404355
H        5.28825998      -0.49384800      -1.06757331      -0.58568037       0.58892083       0.60615176      -0.19472164      -0.49451114       0.05107729       0.07994126       0.17872370      -0.24954922      -0.04083507       0.06072141      -0.03120122      -0.19239541      -0.58200719       0.58069575       0.62208678      -3.66507328
H       -0.17658365      -1.70598292       1.30207610      -0.22911599      -0.19600093       0.21691273      -0.13884281      -0.42139316       0.15108013      -0.00868165       0.16686766      -0.24108079       0.00854174      -0.02119557      -0.01286845      -0.13593214      -0.23780980      -0.19116366       0.24140344      -3.66821790
H        0.31358853       1.26023996      -0.20441473      -0.02415058      -0.10514461       0.02741921      -0.14963144      -0.13234164       0.02523231       0.07916157      -0.02764654      -0.20531494       0.08650041       0.13332046       0.14686072      -0.50260330      -0.03261421      -0.11061837       0.05272955      -3.62915893
H       -3.61065459      -0.64908940      -0.24521357       0.41066143       0.55489081      -0.29567721      -0.20212200      -0.17289752      -0.00193931      -0.00930912       0.04435157      -0.28363526       0.05708134      -0.08341116       0.03410367      -0.24030149       0.41783021       0.57044633      -0.25668721      -3.51526094
H        1.81392705       1.61761534      -1.33695614      -0.43176240      -0.18721914      -1.17991161      -0.10088285      -0.58141795       0.06065529      -0.37086457      -0.11846755      -0.18486380       0.03623858      -0.22744079       0.04135367      -0.34320150      -0.43338705      -0.15549840      -1.13054106      -4.01998710
H       -6.56392670       0.95107317      -1.13079929       0.47227269      -0.22240444       0.17297114      -0.04233474       0.18857988      -0.04114414       0.04443049      -0.07413472       0.01126292      -0.02096708       0.05871942      -0.01479582       0.00942066       0.47858656      -0.22463840       0.17229618      -3.91165987
H       -5.89614630      -0.68007743      -1.12775683       0.20783654       0.35565308       0.68606329      -0.04966268      -0.01499100       0.02245236       0.01480782       0.03424551       0.07495645       0.04105311       0.03102328       0.03547814      -0.00280874       0.22064968       0.35953524       0.68389818      -4.03828914
H       -5.96389389       0.36517644       0.39327383       0.01510628      -0.47918236       0.24277908      -0.05247369      -0.03052070       0.00065794      -0.02818427      -0.01741022      -0.02322853       0.00273234      -0.06537871      -0.00092281       0.07155796       0.01235952      -0.48302553       0.22856806      -3.99098008
H        1.53544223      -3.84171200       1.27856934      -0.38688537       0.07755543       0.31717160      -0.05881197      -0.01141505      -0.03203281      -0.03932943      -0.03048632       0.05736779       0.00789470      -0.02399340       0.03031341       0.02127084      -0.38071932       0.07071132       0.31639312      -4.01058683
H        0.05972335      -3.82900763       2.38522482       1.03262937       0.71939927      -0.65913248      -0.05478096       0.03028113       0.06916254      -0.02649771       0.03902995       0.07220127      -0.03826373      -0.01504959      -0.06254818       0.00939497       1.05408776       0.70105397      -0.64641605      -3.98076561
H        1.65859139      -3.30331182       2.95504189       0.01227219       0.17690191      -0.11811537      -0.04079225       0.00851330      -0.02813620       0.02737989      -0.03344959      -0.02107935      -0.00824306       0.05213820      -0.06819487       0.06275376       0.00667355       0.17997506      -0.11252336      -3.98029510
H        2.69446445       1.56983888       2.46720695       0.06337541       0.00895367      -0.01180267      -0.05782208       0.08171840       0.04410907       0.05816080       0.05422828       0.00301553       0.03470355       0.08295607       0.04420039       0.12011342       0.05523495      -0.01561486      -0.01591313      -3.96301316
H        1.68502653       2.58921432       1.42800260       0.02205825      -0.59713024       0.19867517      -0.05739398      -0.00604755      -0.04950247      -0.02253673       0.00475246       0.12056074       0.02419190       0.01019954       0.00637952      -0.00069386       0.02238137      -0.58996061       0.20440497      -3.96074221
H       -1.54355109      -1.18219543      -2.15698576      -0.11633755       0.22793020       0.29150957      -0.05391648       0.00628555       0.03321414      -0.01427130       0.04515214       0.12313026       0.01327436       0.04185571       0.04009850       0.06314001      -0.07881599       0.24609021       0.29462561      -3.99241253
H       -2.02981019       0.27449465      -3.00836802       0.11650920       0.02160376       0.47611538      -0.05439433       0.05215112      -0.00373954       0.07407024       0.03114065      -0.00170738       0.02988201       0.13235011      -0.01679472       0.17108026       0.09647956       0.03701740       0.45204092      -3.96597997
H        0.41842940       0.77980137       2.61938715       0.11294281      -0.01215886       0.04540171      -0.06192761       0.05601577       0.02605915      -0.06337502       0.03312767       0.00696256       0.01394188      -0.04225296      -0.06126922       0.05766010       0.14475008      -0.03070196       0.00256372      -3.81366555
H       -1.88949895       1.66608942      -0.95071727      -0.09319323      -0.61864132      -0.09628097      -0.04078159      -0.01807125       0.00305205       0.03314754      -0.00085423       0.09780904      -0.02060602      -0.04500627       0.02303224      -0.02339975      -0.10857983      -0.64067907      -0.08313240      -3.88340001
46
Properties=species:S:1:pos:R:3:original_dataset_forces:R:3:LES_q:R:1:LES_BEC:R:9:forces:R:3:energies:R:1 original_dataset_energy=-201.67361450195312 energy=-201.67878425797585 stress="-inf -inf -inf -inf inf inf -inf inf inf" pbc="F F F"
O       -1.50273514       3.03548336      -2.64409828       0.26443762      -0.46862900      -0.19549102       0.28887051       1.09637656      -0.58146094       0.16625366      -0.44471947       0.77215073      -0.34809891      -0.12225703      -0.18390689       0.77858981       0.23361309      -0.45226106      -0.24223155      -4.64485111
O        0.94582450      -1.95032442       2.81604362      -0.50309634      -0.94959563       0.33199599       0.36285892       0.53442296       0.26588360      -0.43049436       0.06600696       0.95170937      -0.09732438      -0.24504566      -0.52194489       1.57090624      -0.51482539      -0.89700852       0.29669854      -4.47928248
O        0.71610713      -2.48861456      -2.78758407      -0.32946637      -0.50822711       0.88859379       0.28426531       0.39934567       0.15325913      -0.22691534       0.12610082       1.02793209      -0.10300054      -0.29677624      -0.12477561       1.14642426      -0.31329071      -0.55634554       0.91220103      -4.66744951
O       -1.30906391      -0.21400991       0.99705952       0.26504335      -0.16524102      -0.02646933       0.18018878       0.71046447      -0.08790285      -0.30968127       0.13105398       0.49552881      -0.08194285      -0.39035225       0.19373107       1.24171670       0.23720163      -0.27303859      -0.09098075      -4.84860384
O        1.93220174      -0.38545066       1.64680815       0.00829866       0.00642571      -1.00921965       0.31307593       0.73513692       0.18121943      -0.23751000       0.23358642       1.35820856      -0.13022234      -0.17711585       0.10101448       0.75551731       0.01122235      -0.06152423      -0.98644655      -4.59582388
C       -0.45034510       2.41531658      -2.74125862      -0.54324597       1.67894053      -0.55647892      -0.07011262      -1.20200729       0.76189250      -0.17439637       0.65407923      -0.84374063       0.75199693       0.03011434       0.57347805      -1.41737072      -0.52834133       1.66235900      -0.53128295      -5.79478525
C        1.42507112      -1.54664671       1.74845576      -0.08563016       0.88292938       0.65358132      -0.06693006      -0.42100688      -0.77051309       0.44743803      -0.47311231      -1.61790771       0.42823368       0.44158194       0.20345443      -1.51918690      -0.07671769       0.94089447       0.68406830      -5.63791442
C        0.35142350      -3.05019665      -1.74575853       0.48410723       2.51792765      -1.02785432      -0.06483512      -0.20773079      -0.33604903       0.34223603      -0.34122433      -1.78191916       0.13625524       0.38589616       0.08792606      -1.27589360       0.52132014       2.55201167      -1.10651515      -5.71315692
C       -0.62635392       0.08195984       0.01227272      -0.71201986       0.78992194       0.59698242      -0.08129140      -0.74229134       0.21514295       0.79637480       0.17528107      -1.07854677      -0.07129196       0.78666519      -0.13293467      -1.19036940      -0.71510512       0.86158131       0.60053333      -5.54438423
N        0.07366806      -4.33500957      -1.64711165       0.65392107      -1.42831564      -2.29375076       0.05524679       0.14107245       0.14301195      -0.13593834       0.21430405       1.21126780       0.03825146      -0.07199068       0.11518224       0.51768867       0.64772561      -1.43074713      -2.29298619      -4.87726020
N        0.00951135      -0.80310249      -0.73895133       0.61236733      -0.57710099      -1.94429314       0.06753945       0.43229441      -0.25830210      -0.30975132      -0.33992153       0.94912197       0.21846392      -0.32911444       0.17177514       0.61993736       0.56266913      -0.50651316      -1.98021567      -4.71251711
N        0.04704648       1.71242487      -1.71242380       0.07634135      -0.68203664       0.71582830       0.08211008       0.43015138      -0.08206483      -0.04375375      -0.27204628       0.55800700      -0.34764494       0.18490474      -0.46202799       1.18809954       0.08280904      -0.52106570       0.67168228      -4.76172398
C        0.44339514       2.53300476      -3.99304748      -0.36230713       0.37796184       1.04091549       0.09170342      -0.00163345      -0.01787524      -0.14159368      -0.02019546      -0.09286871      -0.06125678      -0.12537911      -0.07505723       0.14273467      -0.36149861       0.38119463       1.07181998      -4.45075091
C        0.04118162      -5.29096746      -2.80296755      -0.83493382      -0.35580561       1.69117987       0.07336878      -0.13166068       0.25024661       0.14579496      -0.01440423      -0.29081020      -0.13711571       0.00011378      -0.22441856      -0.37967078      -0.87196906      -0.33388068       1.68737445      -4.76696648
C       -0.67198908       3.30624008       1.66038108      -0.45163316      -0.58859867       0.09136931       0.09401564      -0.19154755       0.07033224       0.13616225       0.00206924      -0.10354371       0.06213822       0.12589195      -0.02827834      -0.18681031      -0.42255672      -0.53009010       0.14990344      -4.80827418
C       -1.45633161       2.50130224       2.72616696      -0.12764122       0.05127477       0.04030368       0.10114360      -0.08167862      -0.05917283      -0.05821532      -0.01239257      -0.20255080      -0.02557664      -0.02307261       0.01253431      -0.24542809      -0.09615839       0.02402433      -0.07370797      -4.72203809
C        1.36650097      -2.46346998       0.52281064       0.60836220       0.31701556      -0.72901887       0.07557237      -0.18804025       0.03154013      -0.04945946       0.01893958       0.06452544       0.14238607      -0.05196774       0.07716316       0.11611110       0.62921611       0.25980526      -0.66094173      -4.55817248
C        0.17366970       2.50830317       0.62523764       0.39458200      -0.37979549       0.35790583       0.09510218      -0.13391459       0.00423664      -0.01815107       0.02471965      -0.06067870      -0.07134330      -0.00072166      -0.15369349      -0.16398726       0.41731668      -0.38193962       0.21854792      -4.64064178
C       -0.63221908       1.69778407       3.75511742       0.37984738       1.48758471      -0.37980497       0.02759595      -0.29622924       0.22763071       0.15887265       0.17857382      -0.49876187      -0.21678424       0.00131516      -0.11194684      -0.32322509       0.36360014       1.43509882      -0.31948818      -4.97483741
C        0.18095946      -2.22666240      -0.45091060      -0.17283367      -0.02568770       1.31630456      -0.00863672      -0.26319007       0.16723528      -0.04018467       0.12545566      -0.71778603       0.03568895      -0.08582745       0.13996968      -0.08658235      -0.17696602      -0.08579134       1.35350491      -5.03378796
C       -0.56086832       1.58150017      -0.38724509      -0.69260120       0.02551629      -0.85063970      -0.02210612      -0.26571452      -0.11850251       0.09046735      -0.05216407      -0.12595794       0.00388055       0.04581218       0.11278624      -0.56950736      -0.71122581       0.02390468      -0.82790416      -5.00970268
N       -0.01892614       0.47388244       3.23340607       0.51601774       0.28403142       0.60916167      -0.01003645       0.47744103      -0.18822133       0.15044090      -0.18011935       0.49603166      -0.29679767      -0.04281612       0.11885700       0.52577776       0.61287002       0.32479292       0.67952659      -3.72047330
H       -0.25558421      -4.65615988      -0.79338324      -0.61184758      -0.71172106       1.51377439      -0.19532302      -0.19206411      -0.10075717       0.00440265      -0.00294823      -0.26523971       0.02141871       0.03736033       0.14202236      -0.17036556      -0.59901006      -0.71595662       1.51417267      -3.57311275
H        0.28922474      -0.52144831      -1.69020808      -0.08650004      -0.42093506       0.94386303      -0.17580284      -0.18248763       0.01105860       0.00428781       0.00736375      -0.05673668      -0.02677383       0.03149538      -0.10474770      -0.27567322      -0.03089690      -0.38874049       1.02074950      -3.57730733
H        0.94534516       1.30487835      -1.81401539       0.71279490      -0.06718537      -0.11349900      -0.18615490      -0.25222038       0.02639187      -0.00288811       0.01330260      -0.24487400       0.06455732      -0.02755260      -0.03753604      -0.07813130       0.65513754      -0.17201581      -0.10667493      -3.52956639
H       -0.05156296       3.20807171      -4.68127680       0.03965880       0.10153122       0.07042839      -0.04696261       0.00190491      -0.02042110       0.01943519      -0.00819319       0.04121544      -0.07981072       0.00201955      -0.06318564       0.09369932       0.04490969       0.10231189       0.07861136      -4.00442218
H        0.51729989       1.57537496      -4.46867895       0.40553492      -0.52227408      -0.20879847      -0.05598965      -0.02325247      -0.02737124       0.01634068      -0.01466886       0.04072552       0.05464966      -0.01178562       0.04786270       0.01585270       0.39713072      -0.52360378      -0.21334106      -4.02378893
H        1.42668164       2.94263172      -3.69362974      -0.44481754      -0.40053558      -0.32126006      -0.05077935       0.07983831       0.03510956       0.01727168       0.03587989       0.00244955      -0.01107651       0.02238039       0.03299856      -0.05146233      -0.45978844      -0.40295346      -0.32042374      -4.03301592
H        0.33055657      -6.31402969      -2.50853634       0.22349137       0.70193470       0.15371718      -0.05529699      -0.02063148      -0.06862904      -0.02432055      -0.01911456       0.14649169       0.03566076       0.00185427      -0.01032431      -0.01208464       0.22478321       0.69334977       0.16710906      -3.97678473
H       -0.97810829      -5.37964201      -3.12601042      -0.64227414       0.03060955      -0.17053728      -0.05488448       0.04988856       0.02801997       0.03813108       0.00829705       0.04686044       0.05229434       0.02425848       0.05354849       0.02771968      -0.64063860       0.03264581      -0.17394624      -3.90938564
H        0.57959795      -4.98810720      -3.65731812       0.96706140       0.71795219      -0.42913640      -0.04800560       0.00242763      -0.12166224      -0.10059950       0.01408746      -0.09474649      -0.06028865      -0.03439874       0.05774618       0.09961834       0.96599138       0.71670171      -0.44019021      -4.02114799
H       -1.36788702       3.98777485       1.13212395       0.20245853      -0.65288073       0.06803918      -0.05730958       0.06214876      -0.04892460       0.00210331      -0.06231679       0.08343649      -0.04830382      -0.01433382      -0.03339617       0.06128533       0.18237737      -0.61367961       0.10410476      -3.95083801
H       -0.02957284       3.99137545       2.19310856       0.53079128       0.11055693       0.11544613      -0.06250935       0.05958831      -0.00290916      -0.03396891       0.04700789       0.06419743       0.04275710      -0.01272121       0.05892960       0.08578582       0.53428211       0.10786648       0.09045489      -3.91008266
H       -2.12028956       1.80113900       2.23561335      -0.20038271      -0.11682394      -0.17037290      -0.04566464       0.02513875       0.05936648       0.03515198       0.08600322       0.02467302      -0.02262031       0.05370382      -0.03465392       0.02137231      -0.22534359      -0.11605543      -0.14042467      -3.95797500
H       -2.11663103       3.18245268       3.30883694       0.57748717      -0.32692850      -0.38872385      -0.05668512       0.09341680      -0.05291477      -0.02675918      -0.05724425       0.04727405      -0.00727495      -0.04374356       0.00458655       0.07528396       0.56655726      -0.31369070      -0.38737669      -3.92680499
H        2.27777338      -2.29097056      -0.04218715       0.19322813      -0.05915627      -0.06003335      -0.05618133       0.12057279      -0.00246485      -0.01741095      -0.01510819       0.01504910      -0.01148840      -0.06448564       0.03906993      -0.00009729       0.18078697      -0.06563768      -0.06685677      -3.92044105
H        1.34349787      -3.49651575       0.84604722      -0.02026731      -0.10804250       0.11268383      -0.05667393       0.01641197      -0.02067925       0.02632389      -0.04326765       0.20285031      -0.03575232      -0.00618273       0.06375798       0.01496445      -0.00000892      -0.12939425       0.10900012      -3.98819074
H        0.67575812       3.28579569       0.03866279      -0.08170215      -0.35269850      -0.03915852      -0.05774483       0.04116339       0.15577495      -0.02346213       0.02856948       0.09371613      -0.01159880      -0.05388468      -0.04638408       0.04424987      -0.05667006      -0.32593842      -0.03614288      -3.87618128
H        0.98873913       1.86909783       1.05107427      -0.60900813       0.79749554       0.05179273      -0.04321145       0.05494937      -0.09193757       0.04835397      -0.00136401      -0.01681947       0.04806809       0.04227396       0.00495906       0.03559516      -0.64818652       0.81488661       0.11233842      -4.06018862
H        0.14926928       2.34883928       4.17185974      -0.11527295      -0.32498252      -0.08376597      -0.06591586       0.04132036       0.01738695       0.03323760       0.03799319       0.03848139      -0.00471166       0.06393442       0.03834037       0.02989291      -0.11340662      -0.32029832      -0.10541821      -3.88891227
H       -1.27641642       1.41774261       4.55925894      -0.42059651      -0.21175988       0.49555019      -0.06708410       0.01951862      -0.00261316      -0.06556395       0.00422215      -0.03079086      -0.07688603      -0.04467558      -0.02226541       0.13015517      -0.39750744      -0.20978475       0.46102773      -3.85467032
H       -0.68337071      -2.59732866       0.10187489      -0.30323356       0.26749846      -0.24471395      -0.05081406       0.05910323       0.07721278      -0.02902039       0.00281218       0.12136499      -0.01902535      -0.02492172       0.00708587       0.02171488      -0.31160650       0.24346012      -0.25357934      -3.82529093
H       -1.62130058       1.87562525      -0.50125211       0.60702002      -0.00290425       0.04666889      -0.04892755       0.09426639       0.03375106      -0.02447755      -0.01884068       0.01509504       0.04865210      -0.00765044       0.11408429      -0.06184244       0.61293711      -0.03702520       0.03745856      -3.81284922
H        0.28517491      -0.17440709       3.95214462      -0.18646465      -0.29976737       0.07032136      -0.17053993      -0.20417582       0.06244452      -0.07189565       0.06825294      -0.33372578       0.08313608       0.01793087      -0.01124366      -0.50446243      -0.16220987      -0.31115856       0.16343911      -3.38841882
H       -0.64995670      -0.01701111       2.60812950      -0.28407392      -0.35680777      -0.36318159      -0.10033050      -0.32790114      -0.01802226      -0.15132291      -0.07399252      -0.15097660       0.07183670      -0.26097243      -0.06760404      -0.48046093      -0.36993207      -0.41521615      -0.43994627      -3.65765464
H        0.86403942       0.55207133       2.68536067       0.10104081      -0.08485833      -0.36975318      -0.10581639      -0.44898564       0.10122326       0.06865429       0.16339626      -0.25938216       0.06368571       0.27023868      -0.12253832      -0.36808130       0.11940317      -0.08553459      -0.38730512      -3.56891694
48
Properties=species:S:1:pos:R:3:original_dataset_forces:R:3:LES_q:R:1:LES_BEC:R:9:forces:R:3:energies:R:1 original_dataset_energy=-208.7926025390625 energy=-208.85324356623076 stress="inf inf -inf inf inf -inf -inf -inf inf" pbc="F F F"
O       -0.45469648       3.47556210       1.12160218      -2.11860371      -0.66345227      -0.32550645       0.21479051       1.28240845       0.52576645      -0.00487864       0.31763375       0.65185482       0.03128083      -0.32973023       0.10625641       0.71155005      -2.08732362      -0.62666313      -0.35580877      -4.83399933
O       -2.86321568      -1.76146626      -0.93640780      -4.61133194      -4.22048569      -4.46689272       0.25824124       0.82687552      -0.01427608       0.26512080       0.49335292       1.60525287       0.20082847       0.17078792      -0.20378197       0.50922893      -4.01332643      -3.49147639      -3.94938390      -4.37654808
O       -0.13156408       1.65320897      -2.49275494      -0.84817410       0.57260704       2.19556332       0.28228638       0.61535579      -0.09358475      -0.19952922      -0.12110704       0.38966426       0.02703085       0.04047359      -0.21445127       1.38969913      -0.84127747       0.60250257       2.20945021      -4.69291860
O        4.02783346       1.14175344       0.34387457      -2.54218841       0.85576892      -0.05740750       0.31116283       1.54028960      -0.22537926      -0.05627478      -0.28921359       0.67661926       0.16876022       0.03526395       0.13800992       0.42684905      -2.60954284       0.83449210      -0.05524408      -4.58555801
O       -1.59951711      -0.67795414       0.17304796       2.28083324       2.71509194       1.61437690       0.40675953       0.97870513       0.07822937       0.34470693      -0.17096370       0.90971920      -0.00014284       0.30208206       0.18701222       0.90266987       1.85948872       2.11989442       1.22907352      -3.94661470
C       -1.44244099       2.77554226       1.44425893       1.15056181       0.66676837       1.78290474      -0.06524892      -1.03316050      -1.04346341      -0.25670919      -0.92599872      -0.78289235      -0.24221673       0.12094026      -0.55359138      -1.40571722       1.16955628       0.61553955       1.82398480      -5.69370440
C       -2.47030759      -0.65122581      -0.72952193       3.23978806       0.94075859       4.08463240      -0.11850488      -0.84922579      -0.25078140      -0.60337894      -0.49328897      -1.71841333      -0.10819711      -0.64143940      -0.04488554      -0.77782410       3.17771613       0.72370497       3.98512608      -5.41720224
C       -0.44363201       1.68513346      -1.28196788       1.31583083      -2.12714171      -0.78539133      -0.09589787      -1.10134208       0.30730773      -0.20207027       0.23073735      -0.10952261       0.14501521      -0.23820875       0.32667878      -1.79687023       1.29275333      -2.22521818      -0.92604676      -5.55719845
C        2.83082914       1.56041121       0.35565066       2.84643412      -3.38670564      -0.24251814      -0.06590521      -1.62772933       0.32667059      -0.02553031       0.56308532      -0.98658691      -0.62147213       0.05285391      -0.56525369      -0.51446631       2.75925265      -3.30875591      -0.33341547      -5.67279397
C       -0.56447703      -4.19015837      -0.42717871       3.44034004       3.89418602      -1.86249256      -0.04099458      -1.36530245       0.15565019       0.29129158       0.16392926      -1.74299484       0.32222795       0.34366264       0.69382507      -0.23323212       3.66031982       3.75496491      -1.85015793      -5.78603638
N       -1.76728582      -4.06604481      -0.06892586      -3.82727003      -2.75354910       2.88480163       0.06587356       0.90014355       0.23159174      -0.08051079      -0.25793388       0.45990243      -0.20824688      -0.12267157      -0.16561959       0.23413984      -3.93501395      -2.70104636       2.95795710      -3.96757683
N        2.40124202       2.59716797       0.98773134      -3.51278043       4.11266136       2.70335960       0.07141592       0.76055949       0.07631958       0.07486710      -0.17201152       0.78966844       0.45430063       0.01334336       0.51415585       0.43956397      -3.30581720       4.13424780       2.68075024      -4.81316760
N       -0.04411757      -3.04777527      -0.92112386      -3.01506329       1.88841569      -0.44047683       0.09775112       0.50607752       0.04914432      -0.35203100       0.28654182       0.84425760      -0.21452970      -0.27359694      -0.42853887       0.28493158      -3.13508660       1.68754659      -0.52307755      -4.20148751
N       -2.21803617       2.02182961       0.63578248       2.21127629       1.70549083      -1.50031793       0.07678320       0.33726892       0.62236677       0.23258245       0.44176505       0.48186826       0.21902813       0.09235679       0.55518728       0.95353790       2.16060710       1.88573330      -1.47820990      -4.70875423
N        0.37928897       1.33184767      -0.25727120       0.08624177       0.27761823      -0.81435162       0.11369850       0.87641988      -0.17816620       0.29184534      -0.31430630       0.39655058      -0.08977557       0.24121810      -0.03924525       0.75265009       0.32511901       0.31999528      -0.61150882      -4.65181907
N        0.17766792      -5.24976397      -0.24058297      -1.20784605      -2.29231644       0.80640262       0.04670462       0.55980532      -0.56603883      -0.08800032      -0.21445227       1.36329341      -0.00284854      -0.05865658      -0.38363784       0.05203892      -1.22373835      -2.49373319       0.89572509      -3.91663816
C       -1.68473577       2.63398623       2.96336007      -0.78472376      -1.47049856      -0.77952498       0.09125881      -0.06994238       0.03163083      -0.05510756       0.08822283      -0.16050609      -0.10684196      -0.08817531       0.07228599       0.28429758      -0.78222921      -1.46549807      -0.80792552      -4.38951848
C        3.10001993       3.45333624       1.97677803       2.19663906       0.76313865      -2.91065073       0.08173131      -0.34709144      -0.28621902      -0.16889790      -0.17858139      -0.36964237      -0.20536795      -0.10691068      -0.22023992      -0.31649171       2.15821456       0.69950382      -2.83757952      -4.68047650
C        1.05157304      -2.81634212      -1.79085886       2.52011657      -2.80579257       0.50556213       0.03645512      -0.43654789       0.05495184       0.27726733      -0.11426963      -0.02203960       0.12185433       0.20297785       0.06676654      -0.26826068       2.91388108      -2.61730152       0.60795966      -5.07333998
C        1.52600527      -1.39365530      -1.70378387       1.00803304       0.96815574      -1.38832951       0.08894669      -0.13217007      -0.09862408      -0.07738383       0.00767407      -0.18872374      -0.08177220      -0.05300695       0.02444376      -0.12648966       0.89759409       1.06791689      -1.39050440      -4.83954350
C       -2.87684536       0.68653244      -1.21895337       1.42135596       1.15804899      -2.50011301       0.05604901      -0.11908153      -0.06969242      -0.00548939      -0.02678380       0.12199722      -0.08252721      -0.07417774      -0.08514227      -0.20149744       1.21481906       1.18044250      -2.65499045      -4.67256178
C        1.70743585      -0.80119592      -0.31984836       1.64681458       0.54108882       0.86849988       0.09833452      -0.10202104      -0.04497572       0.02333229      -0.00878022       0.00412442       0.08000634       0.00191427       0.07568586      -0.14877696       1.74860153       0.33519577       0.79089427      -4.64477078
C       -1.89143133       1.89234352      -0.83819377      -2.42944217      -0.27058372       1.20665240      -0.01912767      -0.31967337      -0.00892364      -0.00354147      -0.14394428      -0.23410451      -0.11214288       0.01650108      -0.18849955      -0.57007009      -2.40799096      -0.35754323       1.15775981      -4.80382440
C        1.74328065       0.79118532      -0.41566133      -0.47263181      -0.99537557      -0.70044005      -0.01323934      -0.39025696       0.24670744       0.05830464       0.06667302      -0.35088304       0.09922203      -0.09553049      -0.02884049      -0.06551039      -0.70996270      -0.85726164      -0.60829610      -4.85245271
H       -2.10626769      -4.71798325       0.65843618       0.04961173       0.80291545      -0.93716860      -0.16269462      -0.18970664      -0.02215023       0.04555375      -0.07356136      -0.21181027       0.07657921       0.05274155       0.04294160      -0.24851856       0.07340521       0.77843783      -0.95725562      -3.41149852
H       -2.24835515      -3.18609095      -0.20043796      -0.59800148       1.04669654      -0.29281333      -0.06157952      -0.28809142       0.10102251      -0.13039005       0.35431695      -0.51460159       0.21558780      -0.12238387       0.20455686      -0.16676568      -0.73175888       1.06242158      -0.25791223      -3.98436287
H        1.36570120       2.87754560       0.92971933       2.03722763      -0.93960577      -0.22634608      -0.13268067      -0.71960571      -0.04694725       0.02466299       0.23159934      -0.12513957       0.04301321       0.08514534      -0.00085554      -0.09181429       2.02402769      -0.92262556      -0.17828813      -3.75519278
H       -0.80045265      -2.27131057      -1.04271841       1.57103944      -1.69577241       0.87744129      -0.15367258      -0.21529802       0.48538062       0.12003750       0.05450148      -0.42590862      -0.10770790       0.00469229      -0.07004518      -0.16605071       1.50172222      -1.33568732       0.77860520      -3.53436087
H       -2.73765445       1.26815295       1.01955771      -0.09414420      -0.40489122       0.40540990      -0.19634706      -0.23509253      -0.03776258       0.03105810       0.02995031      -0.26061401       0.03888251       0.08481247       0.07977861      -0.06994701      -0.04086399      -0.37212491       0.48581721      -3.56979956
H       -0.15425664       1.24878788       0.61363316       1.14679313      -0.63990372      -0.69046187      -0.15873161      -0.06318127      -0.13868107       0.07346523      -0.00934175      -0.23392344      -0.04683762       0.10443534      -0.00766936      -0.18237981       0.95830312      -0.64777020      -0.78193091      -3.47459772
H       -0.37427694      -6.07205534       0.02477705       1.21438622       0.30784571      -0.26577431      -0.16374789      -0.19816495      -0.07831112       0.01032781      -0.03299691      -0.34443427       0.03574000       0.00574770       0.03334638      -0.16995779       1.23774431       0.36136220      -0.28048211      -3.50499397
H        1.12269902      -5.28429794      -0.52573317       0.57817888      -0.22557521      -0.19359538      -0.15779094      -0.26647965       0.05345313       0.03979002      -0.01108888      -0.20849899       0.01776436       0.04671048      -0.01375532      -0.18714117       0.55797137      -0.26745742      -0.20674601      -3.57795131
H       -1.71614933       1.55638170       3.22624040       0.25581324       0.41094378      -0.24027291      -0.04480250      -0.03771387       0.06025698       0.05535543      -0.00256287       0.09618898      -0.01072949       0.03321581      -0.08227896      -0.03385131       0.25515751       0.45642839      -0.27615433      -3.93612833
H       -0.82804990       3.07176399       3.43150616       0.02583084       0.44254449       0.46771404      -0.04942182       0.02396979       0.02908027       0.05015350       0.01533843       0.00356272       0.03631201       0.01696902       0.04427930       0.03967907       0.04641265       0.42846361       0.48937226      -4.00602952
H       -2.66247630       2.97557926       3.31570458       0.36199909       0.50567025      -0.17067958      -0.05225509       0.06233350      -0.03625473      -0.02818124      -0.07019994       0.05610637       0.08463620      -0.06164952       0.02608433       0.02086595       0.34532718       0.48689683      -0.17537577      -4.04834177
H        4.18354702       3.44991922       1.65575838      -0.91189140      -0.68336290       1.24715364      -0.03895912       0.14783626       0.07987093       0.06155479       0.00977198      -0.02536766       0.00233837      -0.06785749      -0.05679040      -0.02965308      -0.90758408      -0.64802291       1.24813192      -3.87779781
H        2.85756278       3.32768726       3.00299621       0.11293068      -1.06212807       0.75396484      -0.06522495      -0.04454507      -0.00292776      -0.02558760       0.05430641       0.02891206       0.04251329       0.03694898       0.05622454       0.10760771       0.13160245      -1.06867641       0.72822341      -4.04638742
H        2.92621088       4.52192736       1.83064699      -0.82499045      -0.13456225      -0.54321015      -0.05072158      -0.02692894       0.01256411       0.00076024      -0.00005376       0.09214554       0.02873560       0.02221205       0.03641145       0.00927407      -0.80526189      -0.12612817      -0.55794139      -3.86080931
H        0.80973369      -3.13878942      -2.81465411       0.16109917       0.38201478       0.13735318      -0.06695752       0.04357779      -0.10713775      -0.07236170       0.06682180      -0.02961319      -0.00749836      -0.00380063       0.13561957       0.11689087       0.03369404       0.33828002       0.14170561      -3.93791905
H        1.85745668      -3.55153990      -1.42157650      -0.61212003       1.12256312      -0.71168661      -0.05418527       0.06382642      -0.00896408      -0.00676486      -0.04516199       0.07453506      -0.04563662      -0.02099746       0.00998483       0.01910892      -0.66831255       1.11415865      -0.78385209      -3.79028943
H        2.50963044      -1.24131715      -2.27094412      -1.50353515      -0.43097892       0.50896966      -0.05485190       0.06485139       0.04976567      -0.04036308       0.04789513       0.03993681      -0.00117837      -0.07369862       0.01696878       0.07693636      -1.40045889      -0.40879052       0.48457413      -3.90713825
H        0.75353128      -0.82916605      -2.24919033       0.36204109       0.24295926       0.21115775      -0.04145262       0.02106660      -0.06868349       0.04397201       0.01300922      -0.13307907      -0.13221518       0.00767460       0.07485607       0.07505607       0.41003762       0.26182808       0.22708726      -3.89692518
H       -3.90859509       0.82015687      -1.02212489      -0.92307222       0.72637123       0.77781755      -0.04969258       0.32680174      -0.08335500       0.03316991       0.10544425      -0.05716555       0.03728280       0.10478203      -0.04414654       0.01428144      -0.91440280       0.70277141       0.80387193      -3.87315482
H       -2.88330913       0.67394286      -2.29278469       0.10803059      -0.24424058      -0.72366035      -0.05163468       0.14136717      -0.01653619       0.09691250      -0.02024891      -0.00181514       0.01010702       0.15870963       0.00111177       0.17000327       0.20038229      -0.31602332      -0.75979498      -3.83484031
H        2.63123155      -1.16631770       0.19478303      -0.33730230       0.41102976      -0.83821505      -0.04855447       0.07968549      -0.06794908       0.05619510      -0.00238646       0.05145834      -0.02383335       0.10165556      -0.04851886       0.05781720      -0.35257794       0.45596784      -0.82636292      -3.98964190
H        0.94721681      -1.20028925       0.31068116      -0.98526794       0.49340242       0.52300817      -0.04121666      -0.07508898       0.04209043      -0.06783722       0.00180819      -0.02787116      -0.04337417      -0.01271064      -0.11156224       0.03295852      -0.95416377       0.44783934       0.56707847      -3.93178015
H       -2.15345836       2.86253810      -1.29633546      -0.38230196      -0.71552855      -0.03648572      -0.06547444       0.04949063      -0.03914292      -0.01342768       0.02522743       0.10405100      -0.03968009      -0.03967089      -0.00432192       0.03051160      -0.41803006      -0.68282131       0.05667447      -3.85486743
H        2.11590600       0.96051556      -1.43699002      -0.80784541       0.20929167       0.08066095      -0.05105453       0.04472590       0.01510657      -0.03804031       0.02963181       0.02448224      -0.00427452      -0.01595488       0.03920022       0.05913834      -0.86898685       0.08408940       0.07442299      -3.68423640
46
Properties=species:S:1:pos:R:3:original_dataset_forces:R:3:LES_q:R:1:LES_BEC:R:9:forces:R:3:energies:R:1 original_dataset_energy=-201.90708923339844 energy=-201.87301566586729 stress="inf -inf inf -inf inf inf inf inf inf" pbc="F F F"
O        1.46911752       1.67577529       3.94960976      -0.47467908      -0.73932981       0.45001090       0.29546106       0.73529647       0.45750620       0.36864750       0.54317208       1.04967683       0.14285030       0.00804126      -0.24033791       0.84313769      -0.50336521      -0.76813070       0.45114290      -4.62260361
O        0.70419192       1.41039300      -3.66906071       1.19647336       0.05556429       0.56548291       0.39258471       0.79787442       0.00739998       0.37546526      -0.05931382       0.58934622       0.33810062      -0.05932272       0.13587966       1.67234654       1.20833692       0.07097806       0.58470817      -4.40465868
O        0.09295830      -1.03858364      -2.17015982       0.93250090      -0.79293764       0.18622902       0.14949302       1.35750791      -0.57919241       0.13936350      -0.39536652       0.83568475       0.03004737       0.27348825      -0.08576904       0.46428139       0.84856026      -0.76742652       0.15062782      -4.88550433
O        0.93354160      -1.39404702       1.26166368      -0.30970955       0.49772602       0.41222662       0.29248109       0.49571854      -0.21383037      -0.08796436      -0.12304004       1.22261178      -0.34249129      -0.15373644      -0.03954956       0.65322305      -0.29714113       0.48594551       0.44288510      -4.55581079
O        0.34434366       2.38218617      -1.72768176       0.54049718       0.08404491       0.61492813       0.30326983       1.10758783      -0.29207837      -0.20679052      -0.12293770       0.77200193       0.28441263      -0.01405589       0.21845537       1.09156840       0.53720885       0.10556482       0.64272920      -4.67251095
C        0.86432070       0.66348863       4.31894398       1.31303036       1.40284753       0.03110037      -0.07648379      -0.91806890      -0.81359059      -0.75668524      -0.84383817      -1.19156898      -0.14430485      -0.42785177       0.03870144      -1.47930783       1.32441649       1.45724090       0.02773637      -5.84292489
C        1.08949924       1.70545125      -2.50828552      -1.65017295      -0.42755038      -0.97644442      -0.07708576      -1.15212951       0.40268273       0.04748295       0.57659496      -0.68052450      -0.63466826      -0.03797630      -0.40819684      -2.03362028      -1.66777651      -0.48827069      -1.09516048      -5.51619524
C        1.26386726      -1.21372461      -1.80695105      -0.95162916       0.42506158       0.68977135      -0.07995411      -1.51212037       0.72979838      -0.13000106       0.60056302      -1.27419218      -0.45476193      -0.20503205      -0.31322302      -0.41767043      -0.98064965       0.40989420       0.64717184      -5.65268232
C        0.67979831      -0.19101655       1.15849876      -0.22784668      -2.08783722      -0.55466342      -0.08806383      -0.40233449       0.13065670       0.47898985       0.08015340      -1.44821452       0.54205994       0.54726246       0.35956097      -1.02869621      -0.23755430      -2.13011538      -0.55418665      -5.69781096
N        2.00756788      -2.30648804      -2.09791827       0.62546968       0.28815705      -0.06709283       0.07801019       0.64160523      -0.25210230       0.04182725      -0.45555414       0.95681792       0.37914353      -0.04472270       0.39946182       0.32828814       0.63358853       0.30138449      -0.03219656      -4.79282218
N        1.16432977       0.50482154       0.13313657       0.27509397      -0.09172861      -0.81282532       0.09609412       0.39411819       0.05083679      -0.43058103       0.01160652       0.72204533      -0.12508492      -0.44035230      -0.31806549       0.89643481       0.23859680      -0.04624775      -0.76547773      -4.69786627
N        0.02042248       0.02291796       3.49956942      -0.81087166       0.00319584      -0.82001299       0.09798823       0.70985139       0.32157835       0.34452096       0.26652096       0.50149535      -0.18413483       0.48252212       0.24153414       1.19234142      -0.80659905      -0.02302824      -0.89512274      -4.54304551
C        1.05996919       0.08088303       5.71770954      -1.18337727      -0.01294847      -0.40724021       0.08710818      -0.09110863       0.02785368       0.12103640       0.02878011      -0.05455566      -0.06765128       0.07218068      -0.09338125       0.22124452      -1.15663730      -0.02673375      -0.38493465      -4.49347649
C        1.54108977      -3.43730688      -2.93201303       0.41777417       0.25901806       0.13721204       0.07786957      -0.15368206      -0.11488067      -0.08200297      -0.10924482      -0.24933727      -0.06294360      -0.02171454      -0.19613440      -0.27253552       0.40667811       0.20707418       0.16268868      -4.74502380
C       -2.32915163       0.96754777       0.58025289       1.65010035      -0.10185828      -0.97261602       0.10687444       0.01528852      -0.04813788      -0.05122898      -0.07463337      -0.13173031      -0.02265015      -0.00051378       0.01278350      -0.16124362       1.67156064      -0.02181832      -1.04507836      -4.83459332
C       -2.56733060      -0.06107152      -0.53388458      -0.74887878       0.63748300       0.16360106       0.09948891      -0.19436763       0.05632045      -0.07974824       0.04361488      -0.12332431      -0.03698026      -0.00099937      -0.05028445      -0.08924169      -0.82561695       0.60672066       0.19677283      -4.75133884
C        2.34773397       1.03773332      -1.90988708      -0.22747180       1.10550570       0.48096448       0.06509424       0.10162505      -0.05680052       0.05941020      -0.11112805      -0.04569816       0.03312339       0.06706682      -0.00994672      -0.03318626      -0.27113676       1.09360077       0.47621127      -4.59417127
C       -1.80189645       0.37797031       1.89372385      -0.00114237       0.61987591      -0.25557059       0.09699614      -0.15493363      -0.01042593      -0.05909675      -0.04839252      -0.09913120       0.10233999      -0.10401546       0.07116612      -0.00257370      -0.01991093       0.63694246      -0.23727534      -4.71558617
C       -2.96725750       0.50025332      -1.93805361      -0.19178268      -0.79635996       0.45171860       0.02394761      -0.34941877      -0.06134127       0.17906986      -0.10170006      -0.22034738       0.09704364       0.05401569       0.15183938      -0.38079689      -0.17092606      -0.82660396       0.42191917      -4.83731705
C        1.96118379      -0.10200545      -0.96499944       0.60072613       0.20191324       0.66610628      -0.01623663      -0.34772930       0.01814280       0.25851397       0.06859350      -0.31130748      -0.11119387       0.29886305      -0.08001790      -0.48299017       0.74247925       0.21074569       0.68527760      -4.97527217
C       -0.27122647       0.52335501       2.11258745      -0.20857260      -0.48213449       1.63075733      -0.03142174      -0.37593105      -0.02007841       0.02487281      -0.01369748      -0.16614964       0.13707771      -0.09821288       0.05887065      -0.61061985      -0.20985712      -0.47662182       1.68901068      -5.06856963
N       -1.76368284       0.95606077      -2.68397474       0.32049173       0.31515238      -0.05269561      -0.01360712       0.54473691       0.04996312      -0.13461822       0.00660772       0.39077147      -0.16458559       0.07879096      -0.16784194       0.59220390       0.41533693       0.34347079       0.06353766      -3.63010014
H        2.99122858      -2.27632070      -1.78077841      -1.26922739      -0.25067276      -0.32447845      -0.19713351      -0.31205161       0.05134782       0.03337116       0.01458033      -0.17353989      -0.00937675      -0.00823531       0.00457755      -0.20287838      -1.26348024      -0.21409558      -0.39170907      -3.60402166
H        0.88305521       1.47007298       0.04181862       0.10704909       0.06266668      -0.60491192      -0.17876460      -0.12098177       0.09903099      -0.14614287       0.00273362      -0.33581695       0.10400462      -0.12119383       0.12148103      -0.26034425       0.08831616       0.04850785      -0.63142473      -3.61736610
H       -0.38809532      -0.84124255       3.83566332       0.05935574       0.30342433      -0.52646178      -0.19802827      -0.19508906      -0.02339970       0.04114894      -0.02402758      -0.24903145      -0.00646832       0.05926434       0.00026970      -0.08859540       0.07459197       0.33007809      -0.52719642      -3.59826343
H        1.77659428       0.66441774       6.24921989       0.53574282       0.36152694       0.14240518      -0.04896303       0.03233324       0.02119142       0.07236698       0.02594132       0.00593449       0.01367798       0.04809568       0.01382564       0.09494918       0.53073403       0.36511473       0.13698433      -4.01505728
H        1.40207791      -0.94691288       5.63809204      -0.11136020      -0.11382493       0.14429475      -0.05308017      -0.00589483      -0.02695922       0.00613606      -0.02922291       0.07790937       0.00330333      -0.00340950      -0.00193876      -0.08196314      -0.11002360      -0.11171532       0.15927095      -4.01986040
H        0.10793392       0.14239499       6.28533983       0.50633240      -0.29044008      -0.38327876      -0.04979467       0.05158947       0.00004555      -0.07413560       0.00649052      -0.01807921       0.03647143      -0.05734225      -0.00023931       0.00538997       0.50437246      -0.29101614      -0.36729005      -3.99492409
H        0.60991865      -3.15881038      -3.42327404       0.17964639       0.11984523       0.10238159      -0.04031831       0.05612844       0.03665058       0.06390737       0.01975081      -0.04742252      -0.02375325       0.03694058       0.01586712       0.03443024       0.17994495       0.11217218       0.12641161      -4.01237088
H        1.34897196      -4.32145357      -2.31219673       0.10755101       0.26819706      -0.10077558      -0.05908591      -0.01888890       0.01871267      -0.00420573       0.02716035       0.07485845       0.00082938      -0.00762175      -0.01122398       0.01517322       0.09136216       0.25670279      -0.12167374      -4.00882131
H        2.29489112      -3.69423842      -3.70184517      -0.41390768       0.25510758       0.49558869      -0.05739684       0.01004626      -0.02532530      -0.04565099      -0.01496360       0.02510682       0.05072120      -0.04927325       0.07547581       0.06446203      -0.39560630       0.25571978       0.49581786      -4.01144249
H       -3.23409581       1.48135769       0.76667011      -0.92140305       0.65084541       0.15707920      -0.06876323       0.06278646      -0.07408384       0.02934135      -0.08005729       0.04052945       0.01250833       0.04980132      -0.00396080       0.01950480      -0.95752809       0.67822082       0.16261712      -3.91757500
H       -1.58392513       1.69427419       0.22671431      -0.31180045       0.08247329       0.03911269      -0.05302045      -0.01709097       0.09799286       0.00830312       0.07547973       0.04194011      -0.02717858      -0.00469192      -0.00481981       0.03923244      -0.32944521       0.03830759       0.06039516      -3.96224973
H       -3.39381123      -0.67253369      -0.16407424       0.02540628      -0.18140353      -0.35521150      -0.06123332       0.02325448       0.04548673      -0.01731053       0.07976401       0.06290570      -0.04472605       0.00260733      -0.04405305       0.05420119       0.01054041      -0.16671631      -0.37537868      -3.87460242
H       -1.70322645      -0.69609272      -0.61972392       0.29127657      -0.27766377      -0.27652466      -0.03661387      -0.05411170      -0.07318599       0.02828769       0.00010096       0.04150398       0.03564699       0.04816326       0.02360212       0.00224977       0.29487451      -0.27618523      -0.30499771      -4.02663785
H        2.92704415       1.76593614      -1.31045246      -0.35077590      -0.27822292      -0.36905864      -0.04765696       0.12640141       0.08536623      -0.02177396       0.04680021       0.06627775       0.01553108       0.08125820       0.05670248       0.00571972      -0.36102758      -0.24360738      -0.36766663      -3.93044880
H        2.98205304       0.64606988      -2.67319632       0.30450660      -0.15501648      -0.63670146      -0.06037246       0.13127363      -0.01808448      -0.12362374       0.04328310       0.01885964      -0.04683559      -0.06687922       0.01398800       0.06376349       0.30722655      -0.15658296      -0.61716835      -3.98783759
H       -2.14211035      -0.64083999       1.97411263       0.12722494      -0.54354829       0.17830792      -0.06280587       0.03651339       0.04252397      -0.04888683       0.06406526       0.10140954      -0.07285057       0.03770463      -0.03232627      -0.03776550       0.16320983      -0.56362666       0.15675870      -3.98312555
H       -2.30006933       0.95058799       2.69256115       0.49251574      -0.35694286      -0.05376056      -0.05872222       0.06735418      -0.03201189      -0.09031758      -0.01921830      -0.00446394       0.03682830      -0.07718665       0.03497978       0.12136634       0.48397800      -0.36105647      -0.05257048      -3.86454628
H       -3.69145560       1.33405197      -1.89948809       0.42958984      -0.41542745       0.16595927      -0.06832325       0.02726075      -0.06631677      -0.01999929      -0.07037696       0.03387805      -0.02245904       0.02832370      -0.02234333       0.02599220       0.39355064      -0.39770772       0.21824604      -3.98194912
H       -3.44705009      -0.34175402      -2.48133898       0.42851073       0.69596183       0.09707275      -0.06363501      -0.01569136       0.05436012       0.02586433       0.04064537       0.03522210       0.01763566       0.10936898       0.01666701       0.09516753       0.42466718       0.67389812       0.09301080      -3.90615546
H        2.92766643      -0.48604637      -0.54835695      -0.98333180       0.06264999      -0.12878999      -0.05280956       0.08460840      -0.08093765       0.02195937      -0.10859486       0.09712100       0.01022612       0.03032726      -0.02210941       0.06480314      -0.97394411       0.04312837      -0.13591473      -3.83955672
H       -0.04843951       1.58774531       2.08477402       0.10428938      -0.05153575       0.28808382      -0.04191296      -0.01526914       0.04400652      -0.02720104       0.00804985       0.11534274       0.02062971      -0.05536546      -0.04938791      -0.09607884       0.10179748      -0.06448280       0.34428510      -3.78821970
H       -1.24663508       1.73829722      -2.20647097       0.18313178      -0.00816513      -0.08280823      -0.10796995      -0.53322313      -0.19874973      -0.12981475      -0.13643135      -0.35450080       0.00796965      -0.18653036      -0.07749375      -0.31444347       0.16051799       0.00434465      -0.10220775      -3.57424289
H       -0.99690002       0.24659786      -2.71345949      -0.40866175       0.01372560      -0.03966927      -0.08349660      -0.44269915       0.26321476      -0.05106281       0.21702987      -0.49092299       0.05500567      -0.10010003       0.17320516      -0.26004694      -0.31374164       0.00183531      -0.09531465      -3.70144498
H       -1.91901374       1.28984952      -3.64313316       0.00122612      -0.31685618       0.51173902      -0.17873432      -0.22794462      -0.03115613       0.04895622       0.04365708      -0.20939146       0.09791040      -0.06775082       0.03375044      -0.32687678       0.01552062      -0.31580307       0.50372854      -3.47854893
42
Properties=species:S:1:pos:R:3:original_dataset_forces:R:3:LES_q:R:1:LES_BEC:R:9:forces:R:3:energies:R:1 original_dataset_energy=-189.8708953857422 energy=-189.8781587869021 stress="inf -inf -inf -inf inf -inf -inf -inf -inf" pbc="F F F"
O       -0.81338394      -4.14660978       2.17057657      -0.76517642       0.20373616      -1.35956478       0.27303126       1.22685381       0.66680186      -0.31265048       0.05757230       0.52625676      -0.18690478       0.02802060      -0.30519063       0.52555796      -0.77570100       0.14487096      -1.33782043      -4.67156581
O        0.62011749      -1.37726164      -2.59024191      -1.87246239      -1.00041699      -0.85850632       0.36639854       0.92250212       0.30753119       0.50517778       0.04722976       0.95101560       0.21077406       0.42258665       0.21194677       1.17077558      -1.76018601      -1.07164893      -0.80891760      -4.47092012
O       -2.05072069       3.05157185       1.09161258       0.22091359      -0.97950488       0.04570317       0.26588494       1.08169456      -0.22705549       0.00896291      -0.50025455       1.00772850       0.19703106       0.02026189       0.11655270       0.45071775       0.20950601      -1.08917599       0.09290894      -4.74129015
O       -0.05668753      -0.57569200       2.08963490       0.32345438       0.79158121       2.74889278       0.24820514       0.46386179      -0.16231402       0.02225189      -0.11734769       0.72997196       0.24158022       0.20889271       0.01069764       1.25780565       0.31514495       0.80176100       2.79464361      -4.71455016
O        1.93046689       0.11658895      -1.80823946       2.68435001       4.37666416       0.73165035       0.33047247       0.72030032       0.29887272       0.10951607       0.44144746       1.27877321       0.01767143       0.08256148      -0.18447925       0.61980585       2.72281212       4.45513583       0.71580545      -4.46357428
C        0.38978332      -4.03382349       2.13767290      -0.51572484      -0.53494155       2.83003449      -0.05334610      -1.48895520      -1.03604875       0.51558965      -0.36210041      -1.08367099       0.74788067       0.07661392       1.04947127      -0.82388253      -0.47279782      -0.46916247       2.86638448      -5.84270071
C        1.46710825      -0.97284877      -1.76912308      -1.62851655      -3.45248461       0.95206666      -0.03936899      -0.73243156      -0.75028956      -0.86127286      -0.63118410      -1.50166065       0.04247541      -0.54811980      -0.08339525      -1.27415398      -1.69361119      -3.44358391       0.86314785      -5.70183982
C       -1.27137589       2.09996915       0.97307253      -0.70664316      -0.37163156      -0.81965530      -0.09023841      -1.71164815       0.18023818      -0.09731400       0.37668860      -1.14700699      -0.28243748       0.00277442      -0.28616007      -0.15665664      -0.62850548      -0.30629189      -0.71239136      -5.44596830
C       -0.09139258      -0.93360746       0.95969772       1.17447889      -2.24138570      -0.87885755      -0.07185376      -0.56417652       0.54518746      -0.30610461       0.53402581      -0.78984039      -0.09114090      -0.39336435       0.08052444      -1.56310618       1.13437018      -2.20400733      -0.89519258      -5.63401466
C       -1.22267985       3.17673874      -2.01545525      -1.04169238       1.39236987       1.95836055       0.01608418      -0.19998703      -0.06217357       0.14266997       0.07324265      -0.08883302      -0.16293482       0.15169061       0.00023214      -0.13501443      -1.02402398       1.30780747       1.75341322      -5.45165547
C       -1.54278982       1.86671031      -1.94113600      -0.29923111      -0.52380788      -1.37886941      -0.04028989      -0.18951041      -0.16108772       0.21152749      -0.03875707      -0.43150600       0.26332165       0.24880214      -0.19602168      -0.04458399      -0.35779942      -0.38014578      -1.40157341      -5.61169611
C        0.11888313       2.10259223      -3.40836906      -1.73568702      -0.12365319       2.03820467      -0.07084374      -0.23254154      -0.12692524       0.15353947      -0.06100309      -0.62407210       0.10365040      -0.02651293      -0.02015753      -0.06311459      -1.57590159      -0.15185801       1.92206522      -5.65322787
N       -0.14133143       3.34394932      -2.84815264       0.27488965      -2.74993038      -1.11439538      -0.03462932       0.11991105       0.14684504      -0.12976967       0.10007598       0.52210532      -0.07273856       0.00095041      -0.05005968       0.04001413       0.17641542      -2.61731523      -0.91561700      -4.89864278
N        0.05075729       2.25405526       1.07886434       0.00340036      -1.57302952       1.24309754       0.11052585       0.98783927       0.04948783       0.10085074       0.12706174       0.55019004       0.07923310       0.09110298       0.22929459       0.21461646       0.01075938      -1.53982605       1.22013807      -4.77544181
N       -0.86781865      -0.33123341       0.06396443      -0.88941205       1.90784693       0.19714791       0.07556561       0.46119574      -0.37674817       0.40204520      -0.35107794       0.68546890      -0.15942205       0.27045594      -0.08956999       0.68650429      -0.79392098       1.89109411       0.13107074      -4.82785553
N        1.12236714      -3.12696600       1.47724068       2.20131183       1.11046052      -0.37096694       0.06965244       0.69442381       0.26452740      -0.21484369       0.30089400       0.87835249      -0.55925031      -0.10632195      -0.81093160       0.76402836       2.23221888       1.02302057      -0.26010141      -4.71606999
N       -0.79598558       1.20977736      -2.94599390       1.16675603       2.57489657       0.81319225      -0.05869063       0.24783700       0.11530153       0.00972361       0.02526797       0.60688702      -0.24938332      -0.24920096       0.18775878      -0.14077753       1.12222844       2.38675721       0.78165970      -4.84133518
C        1.21990633      -4.79969025       3.15802336      -0.60418856      -0.71798402       0.71019804       0.10353042       0.05881933      -0.08718711       0.10632827      -0.09068157       0.00273002      -0.10973796       0.10264330      -0.08330651      -0.02621659      -0.61873841      -0.68897870       0.70218185      -4.32815256
C        0.54908627       3.54751301       1.45984709       1.26066911       0.37512416       0.12295312       0.06497088      -0.10290798      -0.09087446      -0.04308262      -0.11850221      -0.38028001      -0.06506368      -0.08836876      -0.23279629      -0.24265308       1.27575366       0.36008804       0.15072937      -4.78692869
C       -2.47568512       1.24101484      -0.98150563      -1.23867202       0.89172918       1.12216330       0.05790568      -0.19604312       0.11375233      -0.07717490       0.03139367      -0.07158230       0.05928749      -0.05983080       0.05766446      -0.06076111      -1.17113835       0.74840290       1.14773993      -4.76630553
C        1.78735161      -1.97401190      -0.57499862       0.82415414      -2.24250031      -1.50113237       0.08744543      -0.12074815       0.01786378       0.11229985       0.03543465       0.03335752      -0.18281008      -0.05123501       0.02724794       0.21630022       0.93474341      -2.20427486      -1.43911189      -4.32266585
C       -1.79484963       0.74976444       0.33016658      -0.89519459       0.47455192       1.66340661      -0.00163419      -0.32094121       0.22839088      -0.03243206       0.27146670      -0.33095815       0.01534201      -0.05875992       0.04268890      -0.17452097      -0.99071604       0.57212869       1.63146270      -4.84062239
C        0.64648050      -2.25048351       0.43540871      -0.86294687       1.32019961      -0.45385343      -0.00208955      -0.48850920       0.43294404      -0.10924030       0.01526317      -0.29844146       0.23957337       0.00485443       0.24878413      -0.39185780      -0.88828264       1.31408480      -0.49216298      -4.96947336
H       -1.76338553       3.99299502      -1.43000627       1.35703397      -1.23981988      -0.98592955      -0.06788354      -0.04250021       0.01775015      -0.06303429      -0.03483432       0.02096762       0.02138078      -0.06097267       0.08403061      -0.10135347       1.35339843      -1.21281000      -1.01763414      -4.15519255
H        0.97909111       1.67742431      -3.84872437       0.88510144       0.42887798      -0.74383360      -0.07370284      -0.07808819       0.03921974      -0.12917026      -0.02713834      -0.05293310      -0.01245591      -0.03047041      -0.00347837       0.00462781       0.82609201       0.49612398      -0.75902043      -4.11308164
H        0.54669660       4.07040644      -2.74034739      -0.11430822       0.09419004      -0.45365161      -0.19301268      -0.22889346      -0.07638341      -0.02221790      -0.05613789      -0.39423141       0.12645112      -0.01395710      -0.03002285      -0.15546205      -0.07848446       0.05714793      -0.43414490      -3.71026268
H        0.67731959       1.43070781       1.19052720      -1.04295552       1.05764389      -0.23504159      -0.17858338      -0.24519300       0.01180613       0.00194966       0.00117410      -0.35662959      -0.01305828       0.00982600       0.04418822      -0.21880967      -1.04225286       0.97630885      -0.18433520      -3.62659299
H       -0.75450867      -0.49003860      -0.87225157       0.71612644      -1.12683046      -2.56283307      -0.17333160      -0.10787040      -0.07353144       0.01464214      -0.14255662      -0.10821630      -0.08655188       0.01693670      -0.00745349      -0.25684713       0.68874033      -1.13697649      -2.52788323      -3.56190420
H        2.12557602      -3.01072764       1.80771744      -2.15726137      -0.17970119      -0.92660713      -0.20479091      -0.30724025      -0.03779716      -0.00838371      -0.01219094      -0.15819932      -0.07218869      -0.04234843      -0.04590961      -0.15289683      -2.23457556      -0.19504563      -0.93200960      -3.50897361
H       -0.64617687       0.20425835      -3.09181356       0.37791583      -0.28142160       0.26779869      -0.17563793      -0.30689956       0.15527373      -0.05935004       0.09557723      -0.45041868      -0.05834669      -0.06564145       0.04598913      -0.32368137       0.28920359      -0.16934066       0.31033248      -3.84410935
H        1.34480000      -4.15886688       4.04655313      -0.11020274      -0.21146494      -0.35356370      -0.04765947      -0.02230095       0.05862703      -0.00953374       0.00913385       0.00936063       0.04986494      -0.00801743       0.09205691       0.03816163      -0.08262509      -0.21556703      -0.35102150      -3.97078823
H        0.79438597      -5.80199146       3.51864386       0.52884126       1.63827384      -0.95209426      -0.04170848       0.00134408       0.00437013       0.00772657       0.02195068       0.15550194      -0.07994977       0.01224570      -0.17156582       0.09008586       0.51888104       1.61849165      -0.97334563      -4.07542092
H        2.16255498      -4.88625431       2.68020964       1.22494555      -0.75860429       0.12313474      -0.05372065       0.03320635      -0.01740229      -0.03860956       0.00188391       0.02003916      -0.01737431      -0.01173725      -0.05458280       0.02457783       1.20347334      -0.73103605       0.09188758      -3.88534089
H        1.26567125       3.48844552       2.33004141      -0.56474805       0.08898274      -1.28151369      -0.05725803       0.02152637       0.00036188       0.04199477       0.00561833      -0.05528446      -0.01151750       0.06922671       0.03509595       0.04157849      -0.55664606       0.04776838      -1.30722754      -4.01884844
H        0.96445972       3.84359670       0.50432158       1.11290002       0.93547672       0.35711926      -0.05527822      -0.02951388       0.06497696       0.00609791       0.03638119       0.10942515       0.05718855      -0.02373179       0.07623973       0.02336531       1.14392191       1.04605005       0.41263607      -3.79780272
H       -0.20336539       4.30070114       1.68227875      -0.31691584      -0.65416873       0.16199699      -0.03135963      -0.07821056      -0.03982691      -0.01957077      -0.06760880       0.02196441      -0.00445735      -0.02824875       0.00809237      -0.00159538      -0.32772137      -0.64887213       0.09536233      -3.95349009
H       -3.30554676       1.99681771      -0.74243695       1.49416137      -1.12889755      -0.03173522      -0.04265061       0.17460882      -0.10575687       0.00357200      -0.11614563       0.07778614      -0.05039168      -0.03726475      -0.01761222       0.00002916       1.54446626      -1.11338879      -0.09750803      -3.90465191
H       -2.98438096       0.39345023      -1.33617938      -0.54455930      -1.07684612      -1.08926296      -0.06363448       0.10233110      -0.00941773       0.04917804       0.12390286      -0.00443129       0.06376230       0.03199832       0.00934068       0.00763364      -0.62013480      -1.09666985      -1.09233304      -3.89124404
H        2.03260183      -3.02871609      -0.99256063      -0.86773473       1.62712896       0.08332263      -0.03788184       0.08533639      -0.10480337      -0.04462417      -0.06350007       0.15567579       0.03530531      -0.02131901       0.02752462       0.01890656      -0.88317527       1.61438760       0.11775761      -3.78777799
H        2.79440761      -1.80078101      -0.17582422      -0.60228688       0.86499596       0.72739154      -0.04492811       0.23811652      -0.11318886       0.04446751      -0.01948612      -0.00529724      -0.00629502       0.02032870       0.03077210       0.04313666      -0.65710155       0.84055107       0.64982781      -3.99918830
H       -2.57502484       0.25211015       0.98684490       0.61408651       1.32850063      -0.56065100      -0.05557892       0.05832464      -0.00845412      -0.07188908       0.03914828       0.05575764      -0.06338598       0.01198692      -0.04852979       0.07639757       0.62563163       1.30962172      -0.49814577      -3.84996160
H       -0.23278618      -2.71155477      -0.05956006       0.93701875      -0.31324640       0.01519401      -0.04519954       0.09507755      -0.05286372       0.08015721       0.03867247      -0.06582231       0.02602315       0.04066297       0.00502935      -0.00668138       0.90627893      -0.32562702      -0.01365735      -3.80493512
48
Properties=species:S:1:pos:R:3:original_dataset_forces:R:3:LES_q:R:1:LES_BEC:R:9:forces:R:3:energies:R:1 original_dataset_energy=-209.58676147460938 energy=-209.51211389845722 stress="-inf inf -inf inf -inf -inf -inf -inf -inf" pbc="F F F"
O        1.03454041      -0.81284291       2.93456364      -1.41704524      -0.77737099       0.48732951       0.16923173       1.27930233      -0.16791529      -0.43651221       0.02396702       0.50224535       0.09577418      -0.18420850       0.12515459       0.63857518      -1.44171404      -0.83618076       0.36424744      -4.80113151
O        1.98882902       0.17736197      -1.01096129       1.47323477       2.74058819       2.56272483       0.26707253       0.68012982      -0.18581567       0.10037847      -0.01670570       1.53817043       0.29231111       0.39464381       0.09228284       0.80359965       1.52288488       2.73073171       2.68768264      -4.67226620
O       -0.17165580      -3.63666320       0.73612815       1.25366592       1.22007561      -0.95411336       0.29303911       0.68764907       0.43422734      -0.12474966       0.06689275       1.50625608      -0.22851634      -0.04619713      -0.34626760       0.37710771       1.18699910       1.15579047      -0.88238854      -4.66155359
O       -2.42687368       1.25850415       0.36567587       0.46792948      -2.13283134       1.08795440       0.27119467       0.61807293      -0.07282445       0.41499359      -0.48705059       0.87407586      -0.25076548       0.24779735      -0.06565918       0.98111036       0.47346120      -1.96734333       0.90719177      -4.67106837
O        1.22444403      -0.89851004      -2.65741086      -0.91921741      -1.10316122      -2.94654894       0.32634977       0.92685868      -0.04631665       0.46881654      -0.22819843       0.88282017       0.01072492       0.26261994       0.28186911       1.25872619      -0.96455866      -1.00814661      -3.08133537      -4.48764651
C        2.11840105      -0.72938383       2.39365077      -0.82916474       0.39688680       0.28271767      -0.04090672      -1.19879225       0.07414153       0.86248282      -0.12300588      -0.69052710      -0.62670532       0.49231004      -0.58168262      -1.28422224      -0.97553794       0.62614689       0.63470087      -5.79321774
C        1.92235553      -0.86221135      -1.66315198      -2.20180821      -0.41225713       0.78140920      -0.06301460      -0.46543599       0.06097985      -0.75874162      -0.02437368      -1.41704184      -0.27261020      -0.74515106      -0.40421410      -1.35650821      -2.07202282      -0.54459163       0.75257072      -5.55033001
C        0.41005108      -2.58098483       0.43668759      -1.06306744      -1.67938757       2.29379606      -0.07335443      -0.99808958       0.06506080       0.08726054       0.12183575      -2.14993411       0.37038978       0.05115330       0.40385928      -0.17686628      -1.06269388      -1.65327667       2.20755609      -5.44240356
C       -1.76248682       0.37258804       0.99717635      -1.48996723       1.89675736      -2.73773742      -0.08774558      -0.72888116       0.18660813      -0.76047615       0.43553883      -1.07215505      -0.09413243      -0.65592471      -0.05661880      -1.15510829      -1.47883037       1.71395892      -2.78356601      -5.43585705
C       -0.42605847       2.39140892      -1.77541494      -3.43966103      -1.71818674       0.77774692      -0.03281377      -1.44863024      -0.16147033       0.00216874       0.00849904      -1.31309457      -0.50262895      -0.14189286      -0.51252422      -0.32834083      -3.46391110      -1.90820539       0.64949227      -5.76456154
N       -1.32421231       3.27130485      -1.39436889       0.40949017       1.51307106      -0.67439264       0.06707737       0.75359314      -0.21880779      -0.03871475      -0.23576177       0.65690519       0.01894944      -0.13240147       0.24315072       0.09510513       0.33400914       1.68217986      -0.56869933      -3.78470250
N       -1.06696296       0.73549700       2.04326510       1.80428660      -3.18274665       0.24324809       0.10623176       0.61392760      -0.15015554       0.36134317      -0.03289745       0.59859599       0.28841635       0.54553545       0.06277646       0.63207280       1.90235601      -3.24965184       0.28333686      -4.76238410
N       -0.78212845       1.21190786      -2.28121686       0.38214689      -0.37030867       0.54993194       0.08771335       0.51762292       0.26547366      -0.02461761       0.14722978       1.01783798       0.26220223       0.01057592       0.34526321       0.12758197       0.22815520      -0.33623730       0.35508898      -4.31425426
N        2.56300092      -1.44697595       1.38671517       2.50461817      -1.95644486      -2.18040800       0.05831484       0.82092322      -0.14611084      -0.06735771      -0.04652782       0.63230747       0.59211509      -0.11941112       0.36252591       0.96733838       2.72414348      -2.08888523      -2.48130065      -4.48497771
N       -0.24196209      -1.41249251       0.33485657      -0.83724684      -0.34454346      -0.67603678       0.09462993       0.90282157      -0.52823546       0.03132606      -0.32663343       1.19171536      -0.00418115       0.00748539       0.01929516       0.34391103      -0.99611320      -0.33131187      -0.63187439      -4.76894613
N        0.78885961       2.60356474      -1.45420575       4.63744497       0.53575116       0.81726301       0.06767239       0.82299841       0.15555979       0.04229424       0.10758752       0.55823667       0.03718960       0.18372455       0.06047500       0.20638883       4.60970792       0.59365125       0.85800429      -3.92861250
C        2.97780395       0.40893507       2.77475405      -0.49503306      -1.13884628       0.36395299       0.09921890      -0.12487334       0.08700567      -0.15614155       0.00622482       0.02529777      -0.07887390       0.06394389       0.03383631      -0.05624594      -0.40853416      -1.17423506       0.35445719      -4.65417900
C       -1.29450941       1.90524316       2.75802755       0.96164793       1.06639600       1.20477235       0.07812378      -0.17631521       0.10460815       0.09951330       0.03724531      -0.40557659      -0.20307444      -0.05777473      -0.07093663      -0.14628683       0.99755951       1.04356647       1.23535215      -4.99986073
C       -2.10166645       0.61488295      -2.56951976      -0.16094385       0.96099240       1.74411702       0.04038575      -0.33930667      -0.13525091      -0.02497636      -0.09061140      -0.20970101      -0.00823766       0.00783319      -0.07448928      -0.07473425      -0.10257268       0.88766116       1.91953936      -4.96244516
C       -2.23188138      -0.90369034      -2.16303158       1.46859097       1.24564767      -2.00536466       0.08925866      -0.13518758       0.01673785       0.04221487      -0.01678459      -0.21345678       0.07570064      -0.05050050       0.01752436      -0.21518532       1.45437282       1.31469944      -2.01631932      -4.73101989
C        2.41131568      -2.14340115      -1.06538916       1.59546685       0.77384281       1.19657648       0.06298149       0.04385827      -0.19372955       0.07400342       0.00353844       0.01429694      -0.09262456      -0.00213813       0.04343769      -0.02963554       1.61104291       0.72464430       1.04200851      -4.74106982
C       -2.61205363      -1.27130699      -0.75923425       0.21097694       0.97564495       0.26793277       0.07915770      -0.16176093       0.00409874      -0.02553641       0.01797711      -0.03234406      -0.03543449       0.16911398       0.11838303      -0.16962381       0.18881610       0.91503816       0.27579038      -5.02691418
C        2.00120974      -2.49520588       0.40120310      -0.95515984       2.28227925       0.03084061      -0.01129701      -0.52956920       0.19271542      -0.18128624      -0.12383610      -0.29488927      -0.24291174      -0.04432871      -0.19814022      -0.51037602      -1.05527877       2.33820501       0.11383562      -4.79454267
C       -1.68838394      -1.09422278       0.46465415       0.76950985       0.93710262       0.09713112      -0.01715075      -0.61431667       0.12518539      -0.00024136       0.02551801      -0.14993922       0.00307005      -0.02718061      -0.03765576      -0.10912045       0.89554777       1.01888692       0.22225899      -4.95910932
H       -2.27021837       3.03957105      -1.38445377      -1.40299511      -0.05205674       0.17442128      -0.14724380      -0.29688065      -0.02232410      -0.00908534      -0.05383732      -0.21594110       0.00008994      -0.00262311       0.01147142      -0.18945364      -1.37901205      -0.04198712       0.16987481      -3.56268553
H       -0.96711361       4.17593288      -1.16736746      -0.54245055       0.23077002       0.21520436      -0.16039313      -0.17757733      -0.07073395       0.00101821       0.00223648      -0.35044178      -0.00135243       0.00750638      -0.03792493      -0.16344324      -0.49535310       0.13433384       0.18816085      -3.58264203
H       -0.30539042       0.09600973       2.40043521      -1.23157978       0.58817559      -0.29235387      -0.09760872      -0.50511061       0.25010655      -0.10493046       0.26843568      -0.25088815       0.01262094      -0.16445426       0.09941781      -0.27539510      -1.21695296       0.61084936      -0.31078843      -3.88041886
H       -0.07292727       0.51252103      -2.18047237       0.93721533      -0.53641832      -0.57473958      -0.13658835      -0.32223521       0.29353984       0.06401064       0.27218217      -0.32710810      -0.03852502       0.07371578      -0.05218186      -0.13134234       0.84592376      -0.47678688      -0.52202270      -3.67985085
H        3.58967805      -1.25287879       1.27184558      -1.79693067      -0.52554309      -0.56135100      -0.20574972      -0.31861096      -0.01687984       0.01726900       0.11429091      -0.18270976       0.11396449      -0.01474161       0.07469995      -0.17492079      -1.73520852      -0.54080780      -0.56758280      -3.45117175
H        0.38665017      -0.70382363       0.09207010       0.53048515       1.74978125      -0.44927755      -0.15638381      -0.24798343      -0.11085088       0.06151273      -0.11785118      -0.24242709       0.07194328       0.04304379       0.02250662      -0.25106995       0.44965818       1.75941394      -0.27093521      -3.58443799
H        1.32929695       1.73035979      -1.47391391       0.82482344      -0.14808518       0.05207616      -0.06368656      -0.18275938       0.29129201      -0.01584779       0.20239870      -0.81304185       0.19311028      -0.06193244       0.11381044      -0.09567817       0.81573144      -0.22358859       0.09003527      -3.78695811
H        1.15637803       3.30833220      -0.78494912      -1.14574909      -0.85853636      -1.02971041      -0.16189313      -0.20937520      -0.11000612       0.00290627      -0.06027067      -0.22633874      -0.06066231      -0.04191144      -0.03319006      -0.23286465      -1.12635594      -0.82411549      -1.02207660      -3.55045503
H        3.03475642       0.99446368       1.92227554      -0.28348374       1.91910446      -1.23281395      -0.04816403       0.00314331       0.00630025      -0.00344389      -0.05108893      -0.00594314      -0.06261759      -0.04165794      -0.05841151      -0.00514036      -0.26305397       1.96867962      -1.21209806      -3.82306257
H        2.58196020       0.76370347       3.67922258      -0.50638545       1.22339356       0.74511254      -0.05020311       0.00664261      -0.01862058       0.02510089       0.04518096      -0.01859233       0.08370483       0.03949172       0.03302729       0.10859270      -0.51121916       1.27295528       0.73491275      -3.85680006
H        3.94791603       0.12635529       2.95213819       2.50279093      -0.88324529       0.52909267      -0.05027804       0.07286950      -0.04418063       0.02604385      -0.01846209       0.00315357       0.01625481      -0.01771150       0.00363165      -0.00569309       2.47044923      -0.89405680       0.54101095      -3.82150654
H       -0.50112212       2.62054110       2.58686519       0.46872303       0.25799787       0.21464704      -0.05473611       0.00962565       0.06493293       0.01593574       0.01544061       0.07844086       0.06863248      -0.00944964      -0.00016468      -0.01971993       0.47997117       0.21110002       0.20808218      -3.88656443
H       -2.16371274       2.42056274       2.44617510      -1.14051354       0.05133220      -0.11525628      -0.03843934       0.08689633      -0.11918711      -0.09120963      -0.08669854       0.07815282       0.04246443       0.01931908      -0.05491441      -0.06299489      -1.19789058       0.05208200      -0.09993400      -3.93353068
H       -1.29591465       1.59663630       3.80488491      -0.22202989       0.65753257       0.09142246      -0.05616061      -0.02817204      -0.00584253      -0.04217935      -0.00206928       0.01019137       0.04660109      -0.01970430       0.05532949       0.12261797      -0.27190574       0.69048199       0.06249582      -3.89102148
H       -2.17789459       0.73345542      -3.61421084      -0.67939597      -0.18342355      -1.22163689      -0.07092882       0.04594113      -0.01597050       0.08012370       0.02033917       0.00267749      -0.02923299       0.11665733      -0.07712498       0.17741281      -0.65259814      -0.15013577      -1.16487071      -3.87220505
H       -2.81690073       1.27932286      -2.04127812      -0.06195449      -0.91420066      -0.50692457      -0.04354291      -0.01623203       0.00622598      -0.05125461      -0.06347058       0.13460546      -0.02531556      -0.07829040       0.03307321      -0.10384645       0.01476735      -0.88363539      -0.55428482      -3.89347812
H       -1.23657620      -1.33271337      -2.43394542      -0.60196882       0.13758115       0.38009867      -0.03273140      -0.00622135      -0.04242577      -0.00555200       0.00403566       0.00921420       0.07832927      -0.02716901      -0.01965076       0.03187072      -0.57971267       0.18406160       0.31743963      -3.93140562
H       -2.90075040      -1.35076261      -2.95187259       0.28583243       0.37061861       1.18844330      -0.05644511       0.03324365       0.01837344       0.03921704       0.11175215       0.06642319       0.10082849       0.03888155       0.01309723       0.13234317       0.28655786       0.35195130       1.25140239      -3.91634128
H        2.01681089      -2.88762665      -1.65685654      -0.66130704      -1.82448649      -1.28883994      -0.06219048       0.00520544       0.02906086      -0.00195780      -0.00699526       0.07739922       0.05278288       0.00181682       0.08804839       0.07759729      -0.61428677      -1.83439210      -1.32168708      -3.77689732
H        3.47622681      -2.05384254      -1.30023253       0.27574715      -0.69822472       0.78724945      -0.05167316       0.08123779      -0.02429113      -0.01375469       0.00854711       0.01740895      -0.01551434      -0.08303116       0.03078661       0.04616265       0.26176099      -0.69574548       0.89025811      -3.82443736
H       -3.60665417      -0.91766095      -0.50768423       0.07009416       0.41097057       0.19293159      -0.05163607       0.12713713      -0.05134953      -0.01960040      -0.05466895      -0.02969295      -0.00580279      -0.00500231       0.00459554       0.07943470       0.05446522       0.41453806       0.15112919      -3.91336842
H       -2.71205258      -2.29289484      -0.77552521      -0.37101975      -2.63503575      -0.25544757      -0.06491818       0.03261434       0.02734399       0.00724714       0.05129253       0.06515618       0.01255660      -0.04561421      -0.02281793      -0.01810379      -0.41944493      -2.72009365      -0.23397191      -3.64459904
H        2.30511999      -3.48304486       0.68778604       0.34639069      -0.26850823       0.09044089      -0.06965500       0.06040897      -0.08080432       0.01867806       0.06181862       0.05630909      -0.00479510       0.04461619      -0.07553146       0.09025599       0.36016391      -0.21794816       0.08036266      -3.92198121
H       -2.10753727      -1.78582263       1.19560933       0.27098686       0.19904293       0.25588730      -0.06191520      -0.00040689      -0.01947870       0.01230858       0.08779447       0.01389078      -0.05621245      -0.00138258      -0.01322833       0.04411509       0.31625706       0.20575134       0.17745717      -3.84094709
46
Properties=species:S:1:pos:R:3:original_dataset_forces:R:3:LES_q:R:1:LES_BEC:R:9:forces:R:3:energies:R:1 original_dataset_energy=-201.89422607421875 energy=-201.8451815698521 stress="inf -inf -inf -inf inf inf -inf inf inf" pbc="F F F"
O       -0.62102127       2.13480902       4.59489107       0.26703006      -0.66032165       0.05850729       0.27390170       0.31025740      -0.05093042       0.04972299      -0.03586187       0.67166535      -0.60190608      -0.05830842       0.04745782       1.42022957       0.24952964      -0.62309917       0.00343538      -4.68706939
O        0.64633781      -1.28783798       1.39077199      -0.90852427       0.11167217       1.10090375       0.26807407       1.15030023       0.03525892      -0.07952342       0.33473919       1.19631390       0.04531693      -0.04003618       0.10584900       0.54366659      -0.85320497       0.14237055       1.08800805      -4.70577227
O       -1.41501069       2.22727990      -0.15783095       0.17428881       0.10085149       0.13421547       0.23434584       0.46754739      -0.23383201       0.00570048      -0.23279948       1.30952683       0.04982883       0.04613239      -0.18417327       0.88367876       0.13246210       0.07815434       0.11382061      -4.80967262
O       -0.36425000      -0.66291046      -3.51693892      -0.86940622       0.92270154       1.09449172       0.27429202       0.49835960      -0.07115830      -0.27031493       0.07113319       1.01692177       0.30058849      -0.09806932       0.49560255       1.01556393      -0.85500535       0.85772052       1.05807865      -4.68287258
O        2.54706573      -0.60238516       0.64730406       1.39630318       1.08036220      -0.24279442       0.30523819       1.36883082      -0.02137256      -0.24829072      -0.18435814       0.94362881       0.29262008      -0.51953876       0.18150351       0.58727927       1.33423163       1.10306952      -0.17877173      -4.54347787
C       -0.71004158       2.94459343       3.69732451      -0.18015532      -0.28277183      -0.69111389      -0.06146681      -0.07489889       0.14087321       0.00712290       0.11936069      -0.93880681       0.27592852       0.08736122      -0.22689158      -2.21679711      -0.19001633      -0.30164027      -0.59786595      -5.85070990
C        1.48868585      -0.34943569       1.24275637      -0.66537869      -1.08954561      -0.76364088      -0.08028640      -1.73940407      -0.09019085       0.52255799      -0.32882375      -1.17679547      -0.22994446       0.68355060      -0.19747178      -0.43385621      -0.67616873      -1.16994963      -0.82790681      -5.55051608
C       -1.09716177       1.20400846       0.45348689       0.05668983       0.76303476       0.18571913      -0.07059437      -0.27324702       0.16892682      -0.38065507       0.21380174      -1.89472140      -0.14197409      -0.35938463      -0.00749983      -0.99035102       0.12039383       0.77196616       0.16376284      -5.65399163
C       -0.66013432       0.13948336      -2.60481215       0.99200046      -2.70174098      -1.30247784      -0.08726009      -0.54419430      -0.34894218       0.48370512      -0.40127698      -1.53775269      -0.45684349       0.30854729      -0.47149299      -1.04581251       1.00374540      -2.57950314      -1.20166480      -5.60375967
N       -0.12343001       1.33927643      -2.54033566       0.59018683       2.10601854       0.97389984       0.08185808       0.42660314       0.47202043      -0.25986155       0.34116831       0.92457457       0.09630551      -0.19637551      -0.09963687       0.55471668       0.58828752       2.05137167       0.90167726      -4.91058320
N       -0.66106534       2.64702296       2.36572051       0.01752014       0.33746457      -0.02398564       0.10539968       0.24740948      -0.08935168       0.00427842      -0.13891067       0.69015734       0.35369913      -0.03181676       0.23831827       1.31313182       0.04261880       0.38334829      -0.03061713      -4.56832690
N       -1.23642802      -0.00433269      -0.08240741       0.15795565      -0.68313819      -0.38499659       0.08322550       0.23100322       0.10632142       0.15009444      -0.07827828       1.17319153       0.13661773       0.16727717       0.23800927       0.78525003       0.15831646      -0.73419935      -0.35317801      -4.71680282
C       -0.95120037       4.38836527       4.00455093      -0.51296717      -0.54280299       0.26492020       0.09225255      -0.14290919      -0.05877031      -0.01496423      -0.06008012       0.17235857       0.07004767       0.01183315      -0.06483942      -0.12663769      -0.52473182      -0.57100253       0.26932808      -4.55310047
C        0.88878518       1.93388629      -3.41247797       0.73830503      -0.65094119      -0.89588010       0.08387579      -0.28406597      -0.12270032       0.13979507      -0.08883215      -0.18092693       0.06551017       0.16292889       0.19184911      -0.34634278       0.72909067      -0.63854272      -0.87225884      -4.71347647
C       -0.92440289      -2.76971364      -1.02091968      -0.13698016       0.89012635       0.06830714       0.10337780      -0.20924325       0.01139574       0.00020661       0.06104609      -0.03921001       0.04351511       0.00839287      -0.04125754      -0.21255639      -0.17686195       0.92590213       0.07569917      -4.83563296
C        0.49974674      -2.71393156      -1.61271298       0.08511904       0.37313569      -0.64053744       0.11459328      -0.08367532       0.00489712      -0.00133935       0.04380427      -0.23667265       0.00642263       0.04492162      -0.06048149      -0.11248972       0.13783829       0.29470362      -0.68280985      -4.70647273
C        1.12340212       1.06045675       1.72991216      -0.52110124      -0.81718868       0.75335193       0.06702987      -0.03643619      -0.09212654       0.00666718      -0.04135926       0.14385635       0.13333794       0.00900882       0.16010748       0.01582588      -0.50238155      -0.77728434       0.83162552      -4.57135340
C       -2.03762221      -1.78553891      -1.55724037       2.84721828       0.13519898      -0.35702294       0.10208703      -0.15612721      -0.08403450      -0.15400251       0.02554405      -0.20222003      -0.07799137       0.02990132       0.05546193      -0.04071777       2.83390532       0.11812097      -0.33932415      -4.67076555
C        1.50453186      -3.71185017      -1.01448047      -0.57468086      -1.09332156      -0.61552906       0.03006448      -0.16536580      -0.10941797      -0.18058065      -0.06022097      -0.16639079      -0.05713947      -0.17773305      -0.07512193      -0.48730890      -0.57154305      -1.08688791      -0.68617416      -4.86234841
C       -0.41944131       1.31220281       1.83917606       0.58652860       0.28982136      -0.18923301      -0.01908379      -0.33928412      -0.03188653       0.00819521       0.07383999      -0.48698453      -0.22843101       0.08052052      -0.15349603      -0.21173364       0.61846500       0.27300846      -0.14399993      -5.11829794
C       -1.63086033      -0.29411787      -1.45820093      -1.32872999       0.54508442      -0.56655079      -0.01578745      -0.12401385      -0.08927021      -0.09939420      -0.07388827      -0.31525260      -0.04232469      -0.16455528      -0.10702624      -0.49645487      -1.34425508       0.61304450      -0.60134660      -4.95751103
N        2.10089946      -3.19688439       0.22851965      -0.91675079      -0.67573750      -0.01175146      -0.05040912       0.32550017      -0.13011336       0.11330614      -0.01613731       0.48037599       0.09154670       0.16164705      -0.01513594       0.35300089      -0.92893863      -0.65904472       0.00016782      -3.76161944
H       -0.40361759       1.89572215      -1.73960602      -0.10341957       0.04243162      -0.20516656      -0.14369045      -0.19803572       0.03990623       0.16225730       0.08269027      -0.22533136      -0.07745402       0.12603098      -0.05977258      -0.44396736      -0.12727977       0.03783087      -0.18691109      -3.67180710
H       -0.75273347       3.43835998       1.73050725       0.03534815      -0.86171645       0.04070095      -0.19153540      -0.19004569      -0.06536574      -0.05247928       0.02853513      -0.26517921       0.02767931      -0.00388141      -0.01323557      -0.30474741       0.02188368      -0.86587114       0.04322514      -3.59812838
H       -0.97203583      -0.79959345       0.47453567       0.49862388       0.14750686       0.23266529      -0.16775629      -0.34944077       0.11338260      -0.09347184       0.09478648      -0.19982178       0.12274388      -0.05838436       0.14822726      -0.14197231       0.50954056       0.11796784       0.21172231      -3.64273171
H       -1.25612247       4.92565680       3.12272549       0.03349527       0.45506868      -0.14890139      -0.05242187      -0.00962780      -0.00748465       0.02623985      -0.01434324       0.00072806      -0.05547484       0.00914370      -0.00595401       0.08414824       0.03959244       0.45267874      -0.16001065      -3.99901101
H       -1.79579067       4.32674932       4.71082592       0.63269329       0.62565756      -0.03166199      -0.04953860       0.04950928      -0.04842573      -0.07976980      -0.00745001       0.00468711       0.00731310      -0.05897080       0.05841015       0.05723132       0.64562523       0.62068061      -0.03503986      -3.88566288
H       -0.02168393       4.76302910       4.42679405      -0.33628601       0.34414759       0.22353309      -0.05447037       0.04352243       0.06853372       0.06010659       0.03065035       0.02867197       0.03119417       0.02862470       0.06068673       0.02367036      -0.33104988       0.34397159       0.22365516      -3.98309418
H        1.90003037       2.04967117      -2.96018124      -0.87729734      -0.18866538       0.27896917      -0.05547436       0.07508104       0.02657628       0.01857384       0.03214378      -0.00090340      -0.02448328       0.00764392      -0.01364162       0.01729105      -0.86871206      -0.19353944       0.26829326      -3.98057985
H        1.07430243       1.26454401      -4.27914762      -0.48275220       0.47693458       0.53071505      -0.03804016       0.00869710      -0.01752902      -0.04020923      -0.03487449      -0.02060627       0.04119071      -0.04652171       0.00178022       0.09945484      -0.48922717       0.45394475       0.52333218      -3.96580544
H        0.59698516       2.93259597      -3.77357507      -0.16912587      -0.51300490       0.18057629      -0.05820147      -0.00267950       0.00310287      -0.01247835       0.01341767       0.06898649      -0.04709061      -0.01292605      -0.05306476       0.00748440      -0.17499454      -0.50727273       0.16959052      -4.01452309
H       -0.89497352      -2.63190794       0.05028799       0.23738432      -0.23018262       0.34900478      -0.04089667       0.00897611      -0.05629783      -0.02055565      -0.06853114      -0.07912608      -0.02550061      -0.02470554      -0.07438097       0.08625655       0.20360099      -0.18880264       0.32781517      -3.92215831
H       -1.26963592      -3.76002121      -1.20568931      -0.49335557      -0.84830970       0.00233988      -0.06357093       0.05802437       0.03560252       0.00361092       0.01853184       0.20384914       0.02794385      -0.01785728      -0.01298627      -0.02349761      -0.46589341      -0.87940501      -0.03332777      -3.88225665
H        0.42684108      -2.96853328      -2.69201636       0.12508661       0.47426984       0.69490230      -0.05036381       0.04060563      -0.02062161      -0.01407612       0.00101665      -0.08036151      -0.02601919       0.01046737      -0.04061344       0.08089972       0.14932308       0.45155418       0.73624984      -3.91478653
H        0.94571441      -1.71077335      -1.51481271      -0.27799094      -0.35927901      -0.25886992      -0.04299137       0.02282723       0.07387706      -0.02108687       0.02258524       0.07514748      -0.00131942      -0.04298875       0.05329812      -0.05271597      -0.30609287      -0.34437554      -0.23675962      -4.06927634
H        1.57926679       1.82487154       1.12842774       0.30877444       0.17933972      -0.27783000      -0.05868831       0.09015207       0.10317757       0.01664978       0.06890140       0.08462327      -0.03274502      -0.02516935      -0.03448574       0.00350663       0.31788064       0.15995501      -0.29152833      -4.04424234
H        1.51133418       1.13033748       2.76496339      -0.14072034       0.14459698      -0.54445475      -0.05095547       0.05176578       0.06237704       0.13513269       0.03730090       0.03609478       0.07666849       0.06335484       0.01975445       0.08277502      -0.15400351       0.14263955      -0.56078931      -3.96251729
H       -2.22425032      -2.07960749      -2.57261801      -0.19508055       0.34192112      -0.49715918      -0.05265020       0.02508402       0.02527089       0.09216310      -0.03450279       0.03949882       0.01350039       0.05264091       0.03395692       0.11153274      -0.19998946       0.32140982      -0.50112958      -3.96029640
H       -2.91770601      -1.90007341      -0.99388647      -1.03640592      -0.36357552       0.79710782      -0.06176499       0.16480984       0.01616324       0.00157057       0.01938084       0.05173063       0.00704643      -0.07181381      -0.03428894      -0.00685175      -1.04644495      -0.34688353       0.80312203      -3.91848338
H        0.97118562      -4.66502476      -0.79616219       0.57936519       0.54315907      -0.07530015      -0.06501142       0.00007535       0.03102794       0.00633000       0.06035616       0.07281658      -0.02256333       0.03819345      -0.06286974      -0.01696438       0.55027700       0.57661829      -0.08215010      -3.89866777
H        2.32531047      -3.91467571      -1.72217643      -0.45173064       0.09257344       0.31013513      -0.06535684       0.06563430      -0.05045207      -0.03620969      -0.03951794      -0.03699183       0.00556487      -0.01632901      -0.05376610       0.01508661      -0.44624320       0.09032460       0.30681825      -3.91045349
H       -0.79448223       0.59931076       2.55928969      -0.28171480      -0.17822221      -0.04002892      -0.04627569       0.02960635      -0.00823733      -0.08614327       0.01583613       0.07421342       0.01948376      -0.03243484      -0.02578473       0.05363099      -0.27181831      -0.16430437      -0.04725834      -3.90641396
H       -2.55143523       0.30306122      -1.62899196       0.43930644      -0.25625125      -0.09646655      -0.05515949       0.00015063      -0.04071578       0.03082483      -0.02334317       0.07523765      -0.02110649      -0.01317266      -0.01898877       0.01840973       0.42213836      -0.25377735      -0.11140236      -3.79179375
H        2.69465590      -3.80385637       0.76007926       0.44379064      -0.49780849      -0.08756322      -0.17949496      -0.23102361       0.09895023      -0.02230467       0.06128885      -0.24791243       0.04734762      -0.05625239       0.10116451      -0.16770238       0.45518681      -0.51961385      -0.07350465      -3.46564006
H        1.35140491      -2.87977481       0.84312999      -0.58261770       0.59096557       0.63329530      -0.11996588      -0.35314781       0.22052506       0.10176367       0.20938147      -0.56203158      -0.10583362       0.04775557       0.03258231      -0.18680618      -0.61233031       0.60477280       0.70456763      -3.45191206
H        2.53004932      -2.29251814       0.09124276       0.80291468       1.37485099       0.04032622      -0.10500924      -0.25346688       0.08106060       0.02113570      -0.11785066      -0.64485698      -0.11281691      -0.05865246      -0.01566144      -0.14743761       0.85325348       1.41787001       0.01173476      -3.53962128
45
Properties=species:S:1:pos:R:3:original_dataset_forces:R:3:LES_q:R:1:LES_BEC:R:9:forces:R:3:energies:R:1 original_dataset_energy=-202.2082977294922 energy=-202.1640245417293 stress="inf -inf -inf -inf inf -inf -inf -inf inf" pbc="F F F"
O        3.12195969       0.12655926      -1.58919716      -0.66830486       1.69077849      -0.10323608       0.31188858       0.99902846      -0.07721661       0.01025109      -0.45433593       1.00206545      -0.26076742       0.20384392      -0.29449768       0.52206423      -0.63741928       1.65498095      -0.11780628      -4.52409343
O       -1.43728924      -2.01180887      -1.35001206      -2.08257294       1.08121514      -1.74222136       0.35709739       1.23384109      -0.04332745       0.31139024      -0.16464446       0.76879150      -0.23713752       0.52320744      -0.21306207       0.91663292      -2.22250828       1.09315122      -1.77635649      -4.52610799
O       -0.09243435       0.74236751       3.53311181       0.01581430      -0.97142094      -1.35879529       0.30868354       1.23397926      -0.03985352      -0.07638011      -0.20171365       0.64542303       0.38366897      -0.36675394       0.23792246       0.74508274       0.02101075      -0.90254849      -1.44761024      -4.60066740
O       -0.01767755       1.59413159       0.55820930       1.62371182      -2.70088983      -2.09563112       0.27280831       0.47482661      -0.12441096      -0.11351809      -0.05171738       1.19889183       0.05851188      -0.14498802       0.33758364       0.71000716       1.51210189      -2.69252550      -2.15526984      -4.69232012
O       -3.58865476      -1.50847435      -2.01584482       1.88059402       0.11573340      -0.10669578       0.32936206       1.77821531       0.06061083       0.16777717       0.22125900       0.54125810      -0.04081616      -0.14919346      -0.12572230       0.81129334       1.88778102       0.11282594      -0.19250816      -4.69823952
C        2.64645696       1.18398523      -2.06807113       3.66354203      -2.45941472       0.53543878      -0.06119007      -1.94321413       0.08559319       0.07662561       0.29500055      -1.13732506       0.54038010      -0.22097304       0.49143950      -0.35264469       3.56892837      -2.48873286       0.54826738      -5.85284194
C       -2.31955171      -1.40539241      -2.11008501       0.56028271      -0.08321983       2.40566874      -0.04335564      -2.32549359      -0.10563414      -0.38402416      -0.02075054      -0.75997547       0.60201927      -0.24832284       0.64619395      -0.74271796       0.68811955      -0.14014625       2.46307682      -5.41520345
C        0.76462233       0.20292902       2.80678582      -1.63914919       0.44903105       1.69864285      -0.09435263      -1.41831928       0.01083854       0.47618383      -0.05202636      -0.61070974      -0.76649991       0.14734902      -0.54754318      -0.81951250      -1.45251016       0.34007984       1.70970805      -5.36692876
C        0.30416751       0.54641819      -0.11924654      -2.09842515       1.54734588       3.41960526      -0.09176216      -0.16406191       0.13246836       0.12425875       0.15946286      -1.75327565       0.08763381       0.13306359      -0.01057351      -1.03501721      -2.19204595       1.68598616       3.40299515      -5.28996248
C       -3.11970568      -1.95917499       1.44208884       1.52807140       0.94937426      -0.10706914       0.01009928      -0.30360463      -0.04642885       0.07130372      -0.05053049      -0.30254504       0.15503958      -0.16269606      -0.10164738      -0.00674014       1.41038495       0.88186253      -0.08818947      -5.34589706
C       -2.08435106      -1.24508262       1.93775511       0.89106935      -0.30659425       0.45541316      -0.03306216      -0.72640103      -0.06351946      -0.06649261       0.06254323      -0.20799154      -0.06272206      -0.38406780      -0.04520900      -0.07623420       0.96014212      -0.10626692       0.45535440      -5.56111870
C       -3.42661786       0.22007948       0.87458855      -0.20186096      -2.97987223      -0.49511772      -0.07284225      -0.58595062      -0.10410593       0.01556469       0.02048757      -0.14612320      -0.05160855      -0.07063060       0.01638372      -0.15208560      -0.30569520      -2.95678457      -0.45238916      -5.94765489
N       -3.94005752      -1.04838824       0.78109843      -0.25143638      -1.21412420      -1.07992303      -0.00987081       0.90609557       0.34204294      -0.05161431       0.02573518       0.21816200       0.07298458       0.27319811       0.18013612       0.09955369      -0.03493169      -1.21764937      -1.15034976      -4.54991378
N        2.01972270       0.56985831       3.02514553       2.29216146      -1.78860235      -2.32570410       0.08823731       1.10820538       0.14401554       0.07353030       0.20767688       0.40315961       0.16267127       0.06480588       0.25075469       0.20478851       2.19116014      -1.63069507      -2.26764294      -4.62898959
N        0.25827968      -0.69416070       0.48918480       1.32842875       0.82605308       0.25611383       0.09553327       0.25986509       0.10196836      -0.00465157       0.02325304       1.02250833      -0.12606502      -0.00037912      -0.19359812       0.89873751       1.32318645       0.79042641       0.36048058      -4.52004530
N        1.37276602       1.34464836      -2.22771454      -3.48866224       3.32727098      -1.80533195       0.05739845       1.42791757       0.03745212      -0.20181110       0.09015163       0.42188459      -0.30272452       0.00009321      -0.23649787       0.32893244      -3.50213867       3.24010737      -1.85726525      -4.63004159
N       -2.33317041       0.05757523       1.57351303       1.84454513       1.48124242       0.83543503      -0.06270804       0.69709068       0.02735139      -0.09807416       0.14651169       0.15538619      -0.11353724       0.14257615      -0.06478037       0.04537709       1.75855993       1.38918871       1.02311242      -4.91464523
C        3.55411339       2.29573441      -2.56509352      -0.10254496       1.19497848       2.03796268       0.08536269       0.03288835       0.10761262      -0.07976109       0.21235699       0.13009367      -0.17899792      -0.07857533      -0.09916532      -0.10581993      -0.06944442       1.15595631       2.01344123      -4.35750944
C        3.30117702       0.16931194       2.36155796      -0.84991032       0.26063776      -0.51459998       0.08246997      -0.42482786       0.06017799      -0.03454239       0.14974205      -0.13786444      -0.02775752       0.14737803      -0.05186175      -0.23593940      -0.80400784       0.23180146      -0.50168873      -4.53851711
C       -1.67037773      -0.28574079      -2.98983788       0.53871489      -1.03264940      -0.72845668       0.08379372      -0.01239345       0.05334468      -0.14687260       0.04256277      -0.00349806      -0.27871714      -0.00826853      -0.19810509       0.05786502       0.46159178      -0.90275510      -0.63414069      -4.54288885
C       -0.74247307      -1.79477763       2.49805331      -2.09146643      -1.24537635      -2.52553844       0.06475923       0.00730130       0.04620732       0.06391125      -0.10815025      -0.13648512       0.13530345       0.10054740      -0.04500529      -0.02158202      -1.92152908      -1.41275794      -2.51702849      -4.57556482
C       -1.02050447       0.81937456      -2.15316892       0.12244838      -1.96775055      -0.72100872       0.09745660      -0.14655240       0.02760146       0.04479082       0.02960914      -0.10650258      -0.06617710      -0.07017237      -0.04860338      -0.11216593       0.23383136      -1.92397039      -0.69160920      -4.91480486
C        0.46226120      -1.03814125       1.92343831      -1.66992009       2.01314092      -0.30236745      -0.03544747      -0.32862774      -0.13885041      -0.14899031      -0.08463628      -0.30752371       0.33789761      -0.02834083       0.18099775      -0.59815114      -1.75226238       2.21871322      -0.41443399      -5.10269813
C        0.35887074       0.49105132      -1.64361572       0.46716478       0.28955096       1.03941178      -0.03247350      -0.50205731      -0.08005268      -0.07398443      -0.13431950      -0.19432385       0.07463168       0.04640173       0.10231441      -0.07039850       0.58680803       0.40569684       1.07040465      -5.29665800
H       -2.93474603      -3.01072550       1.23305392      -1.29238641       0.26321971      -0.05409645      -0.06955592       0.02025914       0.04740136      -0.02850210       0.18529650       0.13494181      -0.06352148       0.07851060       0.07464781      -0.14792821      -1.36935102       0.29582353      -0.08640073      -4.04069650
H       -3.77331138       1.10170984       0.35292578       0.08192087      -0.27446249       0.26067212      -0.08504474      -0.15204928       0.00348532       0.03017727       0.02925584      -0.03824772      -0.04312964       0.04040173      -0.03767428      -0.09172937       0.07212157      -0.31644349       0.29792158      -4.10968742
H       -4.11705923      -1.50825191      -0.14364366      -0.90331185       1.18521595      -0.37926906      -0.15412749      -0.47091184      -0.09815322       0.13565671      -0.28456236      -0.23771950      -0.01602716      -0.11502296      -0.14363953      -0.59852808      -0.96945169       1.22305486      -0.43237559      -3.62018607
H        2.09714437       1.28053176       3.67052555       0.02872089       1.72495055       1.46003747      -0.19084071      -0.25406084      -0.04206651      -0.11349044       0.03372307      -0.23649029       0.04807985       0.02523256      -0.03705548      -0.13193823       0.01059715       1.68031891       1.51447300      -3.60616549
H        0.14049864      -1.46355784      -0.14472584      -0.05471104      -0.42018512      -0.29381835      -0.17327501      -0.31714500      -0.05560763      -0.10119876      -0.04512544      -0.27712239      -0.09514624      -0.07228640      -0.14809190      -0.16686712      -0.14380711      -0.47516261      -0.27258347      -3.70111920
H        1.08420563       2.19281912      -2.83623338       0.39348009      -2.12096667       1.90622902      -0.20956178      -0.15625914       0.03799222       0.00212047       0.08106830      -0.25743054       0.04145516      -0.03356523       0.05011547      -0.26122104       0.44045011      -2.15058041       1.92508132      -3.45549889
H       -1.58545768       0.75235498       1.60614944      -0.15429658       0.39737853       0.50046688      -0.14990009      -0.40936855      -0.11064910       0.14995077      -0.12375941      -0.30002533      -0.01860760       0.14378135       0.02564248      -0.30985180      -0.03506865       0.28549408       0.18825426      -3.73793008
H        3.24589443       3.27123642      -2.05528688      -0.01528454      -1.08907914      -1.08339345      -0.04389287      -0.04346079      -0.05067405       0.04255547      -0.04455535       0.06167641       0.04978891      -0.00982062       0.03432400       0.00636964      -0.01409650      -1.05631100      -1.07545209      -3.92718650
H        4.53506613       2.13275003      -2.07317924      -0.37344933      -0.23610866      -1.15596271      -0.04586536       0.16336089       0.05733480      -0.03336219      -0.02870174      -0.02036588       0.02356692       0.07488424       0.01060150      -0.02038458      -0.37918672      -0.22358054      -1.11553045      -3.95787229
H        3.51104307       2.37630272      -3.65303636       0.43818083       0.07887806       0.26884043      -0.05736230      -0.06313088      -0.03203379       0.05050649      -0.01796603      -0.03984636      -0.00040492      -0.04199662      -0.02970385       0.11265233       0.41485721       0.08963817       0.28157390      -4.10038043
H        3.48329639       0.80611467       1.42942834       0.08080008      -0.66160321       1.53644800      -0.05482883      -0.01540999      -0.01493650      -0.08552546      -0.01794160      -0.00759095      -0.07953143       0.02362429      -0.01685595       0.12995842       0.11458727      -0.66881844       1.52846703      -4.05067186
H        4.10432768       0.23412740       3.16175628      -0.88093829      -0.17315696      -1.41959465      -0.05910121      -0.02986364      -0.03269465      -0.11902577      -0.02027560      -0.02778901       0.00179725       0.00465995      -0.00078802      -0.02694218      -0.83225712      -0.16281576      -1.43107925      -4.04112664
H        3.16122055      -0.85735917       1.95692801       0.49048993       0.63478857       0.55613118      -0.05732342       0.02411727      -0.03378121       0.02053314       0.05909478       0.06834523       0.16428119       0.03449280       0.05299864       0.07885814       0.50760559       0.66691205       0.55933690      -4.03291069
H       -2.35685134       0.20290309      -3.72759628       0.50545579      -0.86748219       0.59805495      -0.05409025       0.06416054       0.01319233       0.10221677       0.02921943       0.06655234      -0.00840595       0.05983564      -0.03959269       0.10623813       0.49316551      -0.94249576       0.60033938      -4.04747327
H       -0.77989030      -0.79532319      -3.47177958      -1.33616042       0.56891805      -0.12465153      -0.05264639       0.10150214      -0.03278619      -0.00345397       0.00546841       0.05135837       0.11174921      -0.01570986       0.02763638       0.11827355      -1.28721304       0.52850984      -0.10716712      -3.83679975
H       -0.78609884      -1.80924451       3.55882835       0.32573655       0.06527112       0.83592683      -0.06068842       0.01160991      -0.00814190       0.01848975       0.03231991      -0.00585859      -0.07495590      -0.01974465      -0.05258103       0.17336663       0.28920064       0.03586304       0.85298795      -4.06738647
H       -0.77170479      -2.90953636       2.10028434       0.40405223       2.23352814       0.88673025      -0.05286724       0.09132672       0.05586196      -0.04993280      -0.01946709       0.12515173       0.03122059       0.00653886       0.02671652      -0.03442818       0.45164463       2.30526764       0.89153754      -3.86356566
H       -1.65478241       1.16042686      -1.40806985      -1.10447967       0.41740432       1.65566468      -0.05714272       0.13829682      -0.05851398      -0.01130315      -0.08619977       0.04181411       0.00638275      -0.08971923       0.09204157       0.04506529      -1.16901165       0.41208779       1.75257306      -3.88842848
H       -0.91363525       1.63270962      -2.77078056       0.22656043       2.00833297      -1.59818316      -0.05916228       0.03322180       0.04313114       0.01549304       0.02424940       0.12625162      -0.02907190       0.04915312      -0.05772553       0.05397041       0.21621466       1.98522435      -1.59892337      -3.63517969
H        1.28487802      -1.65984511       2.07594657       1.48064685      -1.07944846      -0.38738334      -0.07064325       0.03384084      -0.03232152       0.02278468      -0.10603795       0.01022454      -0.16293665      -0.00635831      -0.02364091      -0.01553295       1.45752473      -1.23056161      -0.37082867      -3.73768560
H        0.65443552      -0.50302660      -1.83413792       0.04577580      -1.12736309      -0.64046890      -0.03506121      -0.04778695      -0.06992422       0.00043952      -0.04863105       0.05868947       0.01620293       0.01400620       0.02477088      -0.03072627       0.02236103      -1.10736912      -0.68475717      -3.68643311
51
Properties=species:S:1:pos:R:3:original_dataset_forces:R:3:LES_q:R:1:LES_BEC:R:9:forces:R:3:energies:R:1 original_dataset_energy=-222.87901306152344 energy=-222.83495326813656 stress="inf -inf inf -inf inf inf inf inf inf" pbc="F F F"
O        3.41359019       0.07294711       1.69809282      -0.01577152      -1.66962504      -0.38413942       0.21132815       0.86170905      -0.13793378       0.08802645      -0.03263710       1.36392753       0.31328612       0.14471133       0.33075841       0.52865365      -0.20663191      -1.72723757      -0.40176152      -4.84605696
O       -1.70569682       2.16455007      -0.28512415      -0.73313838      -0.70970362       0.78205472       0.35213703       0.89772787       0.11828096      -0.11965844       0.23544713       0.82258962       0.02471046      -0.37400110      -0.09763572       1.28465514      -0.72994622      -0.75641207       0.70976323      -4.50613418
O       -2.96213365      -2.10265970      -3.76360941       0.90065825      -0.42560303       1.56678689       0.27410078       0.70088859       0.22042331       0.64842409       0.30796435       0.65243265       0.24422774       0.43296600      -0.00257501       1.45124539       0.94291225      -0.44387878       1.64464115      -4.72930297
O        0.62683642      -2.12750816      -1.31814933       0.47610450       0.03952171       0.32559946       0.27454001       0.89449468      -0.25094060       0.19183842      -0.44662584       0.91323549       0.20408449       0.02395931       0.35121232       0.72151499       0.44252551       0.05561722       0.33335880      -4.69896462
O       -0.07564378       3.08443260      -1.37125969       0.71117061       0.41696060      -1.58755493       0.36310071       1.28858805       0.56768933      -0.11890358       0.49141495       0.79156591      -0.06701875       0.20901477       0.09451471       0.84055549       0.77013393       0.43693146      -1.48323980      -4.39326296
C        3.26240253      -1.07667351       1.18823457       0.87971812       2.11769605      -0.29508197      -0.08249795      -1.95065992       0.00671445      -0.53441601      -0.07435506      -1.19890733      -0.49245905      -0.39038469      -0.54481029      -0.41315335       1.01881849       2.29227659      -0.17958857      -5.63707010
C       -1.15459645       2.46882534      -1.38086009       0.72972029       0.43942529       2.39460540      -0.05182428      -1.38811117      -0.88837345       0.27749564      -0.70588587      -0.64279080       0.15333915       0.28681912       0.08169186      -1.43158568       0.71192228       0.39242637       2.46521565      -5.66422633
C       -2.40876913      -1.93931079      -2.66903973      -1.35684538       0.79841536      -0.13889264      -0.07913563      -0.57030696      -0.48025702      -0.49387447      -0.50385997      -0.84471624       0.19729359      -0.47847378       0.23501745      -1.81591088      -1.38880650       0.80806214      -0.14087340      -5.49379787
C        0.15334573      -1.15832865      -0.72494459       1.08420908      -2.01851702      -0.12472399      -0.06746667      -1.22535517       0.70107019      -0.47337124       0.77284930      -1.03496718      -0.28591195      -0.40162504      -0.48203954      -0.85294130       1.03374309      -2.00524090      -0.11990392      -5.60640250
C        1.45562005       2.88826585       1.38464367      -1.56006563       1.41640437      -0.56196743      -0.03492227      -1.21009926       0.22070572       0.18823954       0.40571471      -0.87903040       0.60613810       0.14003463       0.24473149      -0.83811001      -1.39204551       1.42368042      -0.45298160      -5.63139628
N        0.49190482       3.80940819       1.20006442       1.26711965       1.23698509      -0.79881978       0.09569125       0.71850853      -0.03074727       0.09021495      -0.24808241       0.43513084      -0.06573408      -0.00880095      -0.31367306       0.28482044       1.26926593       1.01390412      -0.98193167      -3.94011322
N       -2.57868004      -2.74280548      -1.55522704      -0.60461700      -0.55269748      -1.59470248       0.12275436       0.43268512       0.42418305       0.08723906       0.41690923       0.88600435      -0.21330871       0.17266105      -0.15095921       0.89152680      -0.57430102      -0.48265787      -1.62921351      -4.58991150
N        1.32364404       1.91785133       2.21240807      -0.66604143      -0.64440137       2.04931855       0.05954032       0.65751096       0.20681297      -0.01586813      -0.14435874       0.50829082      -0.64434480      -0.07135834      -0.27026184       0.69173109      -0.08004815      -0.53775402       1.94677485      -4.50494883
N       -0.94684875      -0.58740360      -1.13494611      -1.60111153       2.56383657      -0.43472168       0.07490300       0.77035383      -0.49268344       0.20059018      -0.31418205       0.44234732       0.03265262       0.31936037      -0.05894995       0.44721834      -1.77100550       2.66487674      -0.65908256      -4.80846478
N        2.06754446      -1.46179056       0.72046733      -0.27086946       0.83882028       0.20888630       0.08950656       1.41731085       0.10433938       0.48021877      -0.11399687       0.49061966       0.13239609       0.15631297       0.33791303       0.38947550      -0.33060563       0.64727608       0.21014857      -4.50952698
N        2.62200928       2.85315490       0.79661715      -0.18241389       1.23639536       0.83877546       0.06631815       0.58524094      -0.23042747      -0.24509674      -0.23356372       0.24391705      -0.24813217      -0.25528068      -0.09295002       0.39067463      -0.47111056       1.06058743       0.86688531      -3.85224067
C        4.53487444      -1.99556506       1.01396799      -0.41022944       0.53232622       0.47806281       0.09210756       0.19827982      -0.17139636       0.01469597      -0.15252307       0.03351336       0.04400709      -0.06545177       0.07811851      -0.14000486      -0.48497238       0.52028937       0.42269929      -4.25707068
C       -3.24485850      -4.11200953      -1.70394981       0.14011788       1.72978222       1.48988402       0.07136573      -0.43443519      -0.40503834      -0.13590251      -0.18351260      -0.46811724      -0.01066643      -0.10432927      -0.11133202      -0.19314759       0.07849633       1.74262136       1.44492979      -4.60768422
C       -1.86440158       2.03208065      -2.60187721      -0.63248730       0.62272412      -1.43020225       0.06306515      -0.08159905       0.09006416       0.07953305      -0.04151164      -0.04753452      -0.01591250       0.09717325       0.08019231       0.12574084      -0.71779369       0.65662443      -1.44596388      -4.87235303
C        0.11970797       1.58952057       2.90411568       0.13368872      -1.70616579      -0.95237976       0.02058228      -0.40907999      -0.05984852       0.20029472      -0.07494618      -0.32968830       0.02292752       0.13705844       0.08358796      -0.22619806       0.06936078      -1.72512379      -0.97902058      -5.22446306
C        0.18160823       0.09126052       3.13078165       1.37993395      -0.14826244      -0.29927728       0.09650971      -0.14669374       0.00848863      -0.05989436       0.01319595      -0.18324186      -0.09061450      -0.03126215      -0.09092572      -0.14118858       1.42135973      -0.17859878      -0.30451247      -4.79456254
C       -2.56403303       0.68366551      -2.51515913      -1.99391496      -0.53912205      -0.75498378       0.10274407      -0.15505568       0.06058362      -0.00335592      -0.00200091      -0.21359468      -0.02191771      -0.04368510       0.10658778      -0.13486054      -1.85713363      -0.67219906      -0.80265658      -4.45725432
C       -0.07457563      -0.73081684       1.89685524       0.32231334      -0.93907970      -1.91269863       0.09038033      -0.10123947      -0.00555117       0.03292638       0.00614045      -0.05740196       0.03308709       0.02022661       0.04087189      -0.19338913       0.47578893      -0.92205717      -2.10209407      -4.72372647
C       -1.61149681      -0.59842128      -2.48329711      -0.73951578      -0.99008542       1.32653308      -0.03114569      -0.41609387       0.09540692      -0.26551660       0.15167450      -0.24126442       0.05670851      -0.10583396       0.05025335      -0.37946329      -0.60870358      -1.05611329       1.62182080      -4.88329390
C        0.82000196      -0.60723907       0.58042479       1.13289356      -0.26643202       0.38815531      -0.00098979      -0.49071182       0.15480039       0.07705510       0.21399272      -0.25365171       0.19187865       0.14113793       0.11068447      -0.02285851       1.20839576      -0.26240918       0.48703034      -4.73637895
H       -0.45425653       3.49509382       1.23640490      -0.61472052      -0.53551280       0.02036020      -0.14816031      -0.34274995      -0.17763399      -0.05646692      -0.10080426      -0.20436287      -0.02976084      -0.04893639       0.04021798      -0.26517636      -0.61789781      -0.42321967      -0.12221136      -3.57354125
H        0.57389057       4.44809818       0.38570017       0.13454834      -1.17941427       0.71917892      -0.16008426      -0.11202436       0.14144392      -0.00213231      -0.04156070      -0.22124587       0.01030498      -0.05198252       0.01752518      -0.38488354       0.15835871      -1.21480205       0.90213381      -3.50663371
H       -2.03949499      -2.53091836      -0.71610522      -0.38827011      -0.24199839      -0.73238385      -0.18354341      -0.22761690       0.00599831      -0.03744189       0.04467317      -0.08102195       0.00985465      -0.02964526       0.01373473      -0.25079804      -0.42265947      -0.27342612      -0.72941518      -3.68222191
H        2.18803644       1.44673920       2.44111967      -0.37971213      -0.66007674       0.00236025      -0.15236671      -0.27935856       0.21339490       0.06158506       0.16516153      -0.24636558      -0.01956116      -0.18552463      -0.32195600      -0.49220042      -0.37325329      -0.56870220      -0.02934863      -3.68440931
H       -1.13256812       0.29501316      -0.67725331      -0.45536190       0.26515654       0.43558162      -0.16637500      -0.16501184       0.08268936       0.06126083       0.11958157      -0.46615923      -0.04231839       0.07628326      -0.12954095      -0.14460065      -0.44725483       0.30579655       0.42414276      -3.50229167
H        2.03823638      -2.26306939       0.12512296      -0.16476101      -0.51549125      -0.40176728      -0.18167305      -0.12958224      -0.08512670      -0.08488832      -0.02398238      -0.21246781      -0.04610145      -0.01538260      -0.10879819      -0.29789386      -0.13966620      -0.45403125      -0.33803654      -3.59896929
H        3.07587814       2.00770307       0.97243237       1.55591071      -1.28127313      -0.50625533      -0.12693889      -0.33232260      -0.10552404      -0.24334327       0.13900760      -0.39054581       0.10979367       0.10454335       0.26157177       0.01176828       1.30257654      -1.24894638      -0.44788110      -3.80613811
H        2.71096992       3.40382838       0.02399868       0.88547188       1.22973025      -2.46244979      -0.14993846      -0.17729437      -0.09652350      -0.00699691       0.01174438      -0.15293151       0.06943122       0.08436650       0.21292029      -0.22440740       0.88138889       1.30438156      -2.51021107      -3.44117656
H        4.59859657      -2.54798865       0.03465331      -0.36924824       0.45964625       1.20920455      -0.05091333      -0.02975507      -0.00326109      -0.02678621       0.02541970       0.00932225       0.07044267       0.01377503       0.04772083       0.07215710      -0.34783126       0.46226569       1.20831209      -4.13390483
H        4.51930809      -2.66597652       1.90635264       0.13217099       0.13627008      -0.95159298      -0.05135034      -0.01209188      -0.01628471       0.00792467       0.02750362       0.01715023      -0.04065624       0.04297761      -0.08507364       0.05551362       0.12429382       0.11595445      -0.92699233      -4.02210987
H        5.44832277      -1.34797025       1.12689650      -1.16166961      -0.55410343      -0.18559252      -0.04274461       0.16958720       0.01170250       0.01409289       0.05190611       0.01244909       0.00308659       0.02413108       0.00331957      -0.00290686      -1.18087758      -0.52800116      -0.18667709      -4.04634518
H       -2.45624590      -4.82870007      -1.81736743       0.18842618      -0.50890332      -0.99090278      -0.06098004       0.01642201      -0.04865279      -0.01110904      -0.03962924       0.03776762      -0.01306216      -0.01124428      -0.00628111      -0.03617608       0.20292542      -0.51728496      -0.99924559      -3.99000849
H       -4.07518721      -4.11100245      -2.46343803       1.27931523       0.06618115       0.82825875      -0.04793672       0.10943331       0.11623366       0.09478200      -0.06296437      -0.09066173      -0.02017330       0.11213694       0.09640647       0.04205655       1.28411243       0.03955831       0.84105448      -4.12356196
H       -3.60162449      -4.36249447      -0.68409872      -0.40529686       0.31564552      -0.68783361      -0.05424422       0.02015092       0.06638104      -0.01326738       0.00898447       0.01033699      -0.04234433      -0.05233994      -0.06825067       0.03929604      -0.39396492       0.32976413      -0.69757813      -3.92303165
H       -2.55741906       2.87756157      -2.90593243       0.40028507      -1.14920163       0.58251357      -0.04717176       0.01589197      -0.03008636       0.00674311      -0.04426399       0.14462248      -0.04491306       0.05397798      -0.07199403       0.04891165       0.40202093      -1.14641402       0.59674317      -3.86798900
H       -1.18577337       1.99582231      -3.42401838       0.73572880       0.02969738      -0.58765429      -0.06048775       0.08812543      -0.02204671       0.00038798       0.01934352       0.04509727      -0.02735688      -0.04569320      -0.02048765       0.10412089       0.80669137       0.03888002      -0.60646024      -3.84865527
H        0.02137616       2.07584691       3.81066370      -0.02406216       1.19895041       1.90561938      -0.07561009      -0.02070808      -0.06461064      -0.11492655      -0.00764167       0.07000296       0.11291891      -0.02786192       0.11758417       0.16686409      -0.07493152       1.18095317       1.96945570      -3.86078479
H       -0.71812505       1.84863436       2.29339933      -0.58337760       0.01922285      -0.45774332      -0.04792383       0.07606755       0.03467742       0.03870610      -0.02095072       0.09527529      -0.05989043       0.01074776      -0.03305092      -0.00240630      -0.64777086      -0.01049024      -0.49277922      -3.84777308
H        1.21291506      -0.13997737       3.50562620      -0.97383350       0.04445224       0.04885348      -0.04777910       0.09430426      -0.01391046       0.05639160      -0.00186414       0.02602030       0.00303399       0.03180361       0.02567736       0.00291669      -1.01030037       0.10884554      -0.02908093      -3.90007173
H       -0.55458391      -0.22725409       3.83787823      -0.25342575      -0.05543242       0.68393666      -0.06548193       0.03216111       0.02611713       0.03810011       0.03562574       0.06783417       0.04177730      -0.05217683      -0.02355549       0.06356888      -0.26441596      -0.04391953       0.72627865      -3.87310076
H       -3.34221911       0.69327438      -3.40150595       1.78903508      -0.77528220       1.67416883      -0.04503402       0.12704529       0.04696246       0.09728440      -0.01983118       0.06293359      -0.05342310       0.04676863       0.02036296       0.02750717       1.68567184      -0.73036979       1.70580135      -3.95661228
H       -3.18186617       0.66292620      -1.57119226       0.67399675      -0.11950860      -0.98980552      -0.04404825       0.06099670      -0.02051609      -0.04400082      -0.01992508       0.05224547       0.00468295      -0.02668110      -0.04654286       0.11914190       0.66475464      -0.09490933      -1.00067633      -3.96718284
H       -0.13501975      -1.79385078       2.16468143       0.60915756       0.14106148      -0.06631608      -0.05549482      -0.00518899       0.03353834      -0.03798463       0.02074319       0.14258326      -0.04422395      -0.01463308      -0.01013743       0.02951597       0.62252219       0.13948720      -0.05497126      -3.89614267
H       -1.06820703      -0.58608383       1.54946387      -1.04375958       0.72533780      -0.21530539      -0.05959140       0.11714291      -0.00443376       0.02898823       0.01630568      -0.00747728      -0.02930160       0.02817343       0.01225653       0.00774789      -1.06064848       0.68108947      -0.26315791      -3.86994292
H       -0.86050355      -0.70622754      -3.25281572       0.22458076       0.67323142      -0.24895884      -0.06492978       0.09548165       0.01803597       0.00946844      -0.04180514      -0.00294963      -0.02220707      -0.00157551       0.02950073       0.06489807       0.19093018       0.71588806      -0.28429558      -3.91340476
H        1.09420681       0.44553730       0.28010273      -0.18032692      -1.11725116       0.79613537      -0.06114081      -0.03296245       0.06507016      -0.02730550      -0.00403873       0.09388042      -0.00074957      -0.01695683       0.01684718      -0.01953576      -0.17439313      -1.11383871       0.87465284      -3.99273414
48
Properties=species:S:1:pos:R:3:original_dataset_forces:R:3:LES_q:R:1:LES_BEC:R:9:forces:R:3:energies:R:1 original_dataset_energy=-211.83709716796875 energy=-211.8608965887385 stress="inf -inf -inf -inf -inf inf -inf inf -inf" pbc="F F F"
O       -3.10494089       1.89972520       3.28242922      -0.00000088      -0.39828745      -0.12803109       0.29052949       1.24003555      -0.37304549       0.00367509      -0.30764264       0.49425724       0.13791818       0.32202730       0.01423877       0.83468011       0.01228981      -0.37743978      -0.11000521      -4.60499439
O       -0.74430400       1.57437205      -2.22657681       0.82615632       0.64020663      -0.09888358       0.26938042       1.31537342       0.15072227      -0.38820290       0.37483692       0.79885741       0.13396313      -0.19845952       0.12118718       0.97385848       0.85459294       0.73384481      -0.07895281      -4.78126061
O        1.56287360      -0.97551268      -1.13194919       0.04187234       0.61973673       0.52313393       0.26173410       1.44211579       0.24758984      -0.05147959       0.53161088       0.92961941       0.07465007       0.00240188       0.11759484       0.47598816       0.03394903       0.66474634       0.56837613      -4.73899457
O        1.36166406       0.30126345       1.99134874      -0.04232144       0.04197271       0.33808896       0.28541577       1.00590270      -0.17715610       0.44345585      -0.14981218       0.51473439      -0.32225537       0.13804206      -0.17534935       0.95792133      -0.12765708       0.07850221       0.33551301      -4.59472101
O        0.73334384       1.15213513      -3.84150672       0.10798680       0.23594198      -0.28086889       0.30101621       0.89940836       0.31252900      -0.26445238       0.12445720       0.83163687       0.35710529      -0.38032144       0.23567212       1.40253491       0.10296432       0.24985788      -0.31110084      -4.71219021
C       -2.07101703       1.61653996       3.87487841      -1.50859666       1.55551982       0.53601491      -0.06075108      -1.76273526       0.74168273       0.30380271       0.70864624      -0.46296727      -0.47552491       0.04853448      -0.33049336      -1.28235126      -1.52775027       1.52812694       0.49428749      -5.88827212
C        0.42897955       1.64581037      -2.74681854      -0.99741602      -1.08533788       0.60002935      -0.05804582      -1.64638234      -0.21047898       0.51603350      -0.13918082      -0.48507445      -0.57724670       0.44610151      -0.47657724      -1.68904473      -0.95247652      -1.07747287       0.63219798      -5.57743969
C        2.30779481      -0.01345974      -0.93142438      -1.61161852      -0.82821822      -0.31714958      -0.08773004      -1.93748439      -0.21902836       0.16883330      -0.32244353      -0.98445233      -0.22392408       0.14383633      -0.23657955      -0.19861252      -1.63467812      -0.85308159      -0.36502989      -5.70228098
C        0.40482464       0.76489997       1.37590361       0.95179981      -1.17205107       0.85290307      -0.07621748      -1.15011553       0.15093073      -0.26016716       0.23953733      -0.37251951       0.73821101       0.02380954       0.57956679      -1.53058417       1.03978762      -1.22242223       0.87140766      -5.72985565
C       -1.14618075      -1.73020899      -2.62646270      -0.04125700       0.05257404       0.06162532      -0.02024592      -0.57115413       0.01044256       0.53105740       0.04697861      -1.54394777      -0.30383437       0.66055687      -0.00431093      -1.04613348       0.11239712      -0.05026333      -0.06905341      -5.79264861
N       -0.49941587      -1.29798520      -3.66178465       0.70241749       1.78025818      -1.48514092       0.08458796       0.37103131       0.17079711      -0.22911814       0.18063065       0.64790078       0.13521932      -0.33708530      -0.07041705       0.80088239       0.55530561       1.68916773      -1.39326816      -3.92270228
N        3.61289120      -0.12101966      -1.11867809       1.83537900       0.53972429      -0.35963029       0.08055490       1.14871870       0.02311283      -0.12753873      -0.18393948       0.52632139       0.08818217      -0.29693032       0.11161842       0.18445965       1.79956991       0.52859778      -0.39884178      -4.80834180
N       -1.76636696      -0.88083601      -1.84599090      -1.00567102      -0.19382299       1.32171881       0.07057929       0.29034629      -0.15334970      -0.30779227      -0.16471877       0.79979930       0.17955123      -0.34969845       0.10826169       0.63326334      -1.20667225       0.04221553       1.50474452      -4.36357649
N        0.54152465       1.36108351       0.21177119       0.09662350       0.64281601      -1.82734048       0.08548229       0.59846717       0.05612374      -0.19198093      -0.00209127       0.35743622      -0.42666983      -0.07090772      -0.41136031       1.05846567       0.08968750       0.67080423      -1.85623442      -4.72186062
N       -1.02335596       1.06777537       3.28612041       2.21028209      -0.59094006       0.09505496       0.07684840       0.98240581      -0.34551928      -0.38072484      -0.25799204       0.43876507       0.18044241      -0.35326389       0.38400239       0.74810827       2.22551147      -0.66335016       0.10465165      -4.65951162
N       -1.15505886      -3.04442334      -2.48293018      -1.30373597       0.08581525       0.92755479       0.06183861       0.18421681      -0.03477973      -0.22856926       0.08361950       0.89255297      -0.02600424      -0.09737907       0.08040649       0.51322484      -1.27312964       0.06857625       0.96245841      -3.82177864
C       -1.90185070       1.97622585       5.34384060      -0.22000626       0.20260373      -0.09204791       0.09188752      -0.05128681      -0.02473742       0.02103962      -0.03011657      -0.10624842       0.09209204       0.01220384       0.08070199       0.20482729      -0.20780404       0.20587120      -0.09735328      -4.44188382
C        4.28287220      -1.41105723      -1.29763675       0.01703058       0.23169754       1.89697564       0.07539842      -0.18407041       0.10060358       0.00406458       0.12419732      -0.38165496      -0.03529112       0.22000430      -0.09677814      -0.20238048       0.05397185       0.24475090       1.90480407      -4.81896546
C       -2.35347319      -1.08090901      -0.49039143       0.40939349      -0.63847542      -0.84645903       0.02611368      -0.07562686       0.09475877       0.10958220      -0.08941735      -0.19825764       0.13870505       0.00220701       0.08712763      -0.41731375       0.50779433      -0.64903919      -0.98489773      -4.97457296
C       -1.32484746      -1.59294891       0.54845780      -0.56512022       0.50332910       0.36541593       0.09927111      -0.20380335       0.02196434      -0.02837264       0.08423439      -0.00269879      -0.02690759       0.00205464       0.04093263      -0.17374008      -0.52333711       0.40257770       0.44011108      -4.75336047
C        1.55314970       2.18241835      -1.87034941       0.23096946       0.47744572      -0.12934645       0.07165414       0.08786068       0.08418274       0.08136316       0.05191260      -0.05476436       0.09277053       0.06100307       0.03189409       0.00133219       0.25038956       0.43007597      -0.16444681      -4.62368548
C       -1.50123715      -0.88915831       1.91312838      -0.37694502       0.76055896      -1.39786756       0.10811923      -0.03517433       0.02725822       0.00286103      -0.08917760      -0.24443950       0.07918722      -0.00603014      -0.11569286      -0.01263795      -0.36043677       0.85644098      -1.32616684      -4.57404285
C        1.79145181       1.38824439      -0.57801139      -0.94510692       0.08361713       0.25658417      -0.02027384      -0.46248553      -0.07084459       0.24494308      -0.12927718      -0.23544002       0.16474157       0.27755501       0.17362060      -0.39757905      -0.99381105       0.11570327       0.31892098      -5.11780980
C       -0.99817288       0.60121024       1.91217971      -1.00021434      -0.78248513       0.42231014      -0.02589353      -0.09824361       0.00991631       0.07863780      -0.04593209      -0.27812613      -0.07101166       0.04807253      -0.10890550      -0.41691701      -1.03716990      -0.78201625       0.38259113      -5.09611190
H       -0.30289158      -0.29240543      -3.71271205       0.36129865       0.06806640      -0.48426411      -0.07058471      -0.27282258      -0.30718564       0.01084428      -0.28682837      -0.65825731      -0.02044360       0.02394998       0.07555994      -0.26706255       0.34271798       0.03919008      -0.50734932      -3.74305146
H       -0.04570228      -1.88408029      -4.33992577      -0.12139665      -0.03987870       0.31131706      -0.15635285      -0.18974079       0.01614544       0.02273185       0.02859081      -0.19324178      -0.09426376       0.02384486      -0.08258663      -0.31080507      -0.07479841      -0.04618851       0.30190833      -3.59673174
H        4.19259405       0.72046757      -1.08818924      -0.45875961      -0.72819853       0.16600294      -0.19903348      -0.30416062      -0.05938993       0.03160175      -0.08006311      -0.20750554      -0.00307920      -0.03914269      -0.00927805      -0.17821979      -0.44531723      -0.73351075       0.15649350      -3.59168403
H       -1.60010111       0.09197092      -2.05738187       0.41593087       0.71726441      -0.40932572      -0.09784770      -0.29691310      -0.23683642      -0.02629817      -0.32352380      -0.73530322      -0.01551737       0.07255029       0.05286073      -0.00129169       0.40011825       0.61861443      -0.41419158      -3.89467286
H       -0.29078379       1.61572313      -0.31538442       0.23387678      -0.06796271      -0.20235157      -0.17136893      -0.18324750       0.09590752      -0.21616780       0.03261882      -0.15670080      -0.04104261      -0.18969394       0.00911589      -0.41379140       0.22469683      -0.06787883      -0.20538881      -3.65471681
H       -0.16750051       0.91273570       3.83801413      -0.77990633       0.01227407      -0.67939705      -0.19987585      -0.29503390       0.02362423      -0.00407907       0.00939887      -0.17870693       0.06372516      -0.08103588       0.05046744      -0.10013502      -0.76702872       0.05043156      -0.67983040      -3.56228522
H       -0.47982404      -3.52567148      -3.00420380       0.63998604      -1.05133653      -0.10669395      -0.15832205      -0.20203591       0.09796535       0.09403097       0.01168468      -0.23167781      -0.05551031       0.01455751      -0.13232910      -0.27198714       0.60412307      -1.02506966      -0.13016577      -3.61403267
H       -1.56627965      -3.35914016      -1.64419842      -0.01702881      -1.03025389       0.58616865      -0.16395172      -0.17880451      -0.01602576       0.04422135      -0.00707827      -0.15438575       0.07159853       0.01788590      -0.05156380      -0.31523985       0.00903157      -1.01914392       0.57413723      -3.52552499
H       -1.07187235       2.67742705       5.48135233      -0.01020654      -0.33030412      -0.00001059      -0.05097194       0.04294378       0.04985265       0.01932050       0.04195210       0.03216010       0.03514904       0.03285923       0.00307996      -0.05564882      -0.01097199      -0.32630712       0.00504137      -4.01840529
H       -2.81236553       2.47375846       5.70592213       0.32574871      -0.36704162      -0.25043702      -0.04547555       0.05948688      -0.04773323      -0.07514809      -0.04647329       0.02427928       0.06034763      -0.05775435       0.05089744       0.09172418       0.32520753      -0.37324345      -0.25594882      -4.01127302
H       -1.73203862       1.05566788       5.89505005       0.13498914       0.09621090       0.29129437      -0.05348750      -0.00831997      -0.02591481      -0.01350592      -0.00492446       0.03730556      -0.07264833       0.01686373      -0.05558158      -0.01377792       0.13321314       0.09094553       0.29625381      -4.00051149
H        4.49972391      -1.80459392      -0.27573389      -0.42662805      -0.10202498      -0.71087718      -0.05110900       0.01241774      -0.03517182      -0.00193809      -0.07531442       0.04339173      -0.00310874       0.01957585      -0.03763667       0.04973166      -0.43586468      -0.12358133      -0.72028884      -3.89307190
H        3.69522333      -2.12821651      -1.85026741      -0.12850666       0.15095723      -0.15118335      -0.04596173      -0.08559931       0.06931424       0.05297211       0.00487155       0.05933896       0.02979936      -0.06576316       0.05134976       0.02571779      -0.15052727       0.14597408      -0.12837095      -4.05170188
H        5.25882053      -1.26477921      -1.70424819       0.40796262       0.20620568      -0.73901945      -0.05928860       0.11089280      -0.04417318      -0.04731971       0.00966728      -0.00094276      -0.00313078      -0.06430421       0.02236726      -0.00342406       0.40940224       0.21104205      -0.72914943      -3.97401029
H       -2.78014159      -0.10795072      -0.22371459       0.32538238      -0.24162810      -0.01234531      -0.06149380      -0.02321130      -0.06713695      -0.03732377      -0.11626930       0.01001721       0.03469001      -0.01648460       0.02452756       0.08196108       0.34347532      -0.28859718      -0.01273979      -3.91743470
H       -3.21616077      -1.75055575      -0.58123046       0.17002775       0.01905897       0.11985891      -0.06720989       0.12530154       0.06646070       0.08531076       0.13753045       0.04870078       0.02713939      -0.00120300      -0.03419146      -0.05278479       0.11333416       0.04193092       0.03363524      -3.94705449
H       -0.31397808      -1.44427812       0.17094684      -0.04553531       0.09690314      -0.00687657      -0.02876317      -0.03557952      -0.13536129      -0.03172475      -0.03342583      -0.04283131       0.00706561      -0.04530220      -0.01088917       0.01121442       0.00917221       0.09648853      -0.03710718      -4.06551616
H       -1.43239272      -2.66001439       0.74514872      -0.13145712      -0.05179548      -0.26372892      -0.06400437      -0.04025463      -0.05817671       0.01774834       0.00222451       0.13571524       0.03674885      -0.00115360       0.02687447       0.04861376      -0.15583055      -0.03267277      -0.25542305      -3.94176575
H        2.46636820       2.19407845      -2.45067501       0.17092143      -0.26037085      -0.13352947      -0.05232564       0.14977120       0.05020025      -0.08169085       0.04276722       0.03536177      -0.04898532      -0.07185066      -0.04111363       0.06888794       0.15205339      -0.25063633      -0.12161934      -3.90073253
H        1.39793849       3.22230482      -1.61786342      -0.40905288       0.22194484       0.23433501      -0.05335893       0.02384346       0.01286871      -0.00387610       0.02089947       0.15292898      -0.01788031       0.00284387       0.02251988       0.02005663      -0.39276321       0.23652176       0.24393453      -3.91509549
H       -0.96144831      -1.46677995       2.61685443       0.64903027      -0.23216684       0.91151094      -0.06138783      -0.01860536      -0.04066116       0.05492679      -0.02638234       0.04153986      -0.05278786       0.03594438      -0.04481814       0.07989279       0.64541803      -0.20615157       0.90481771      -3.96598838
H       -2.56947875      -0.88718718       2.21964884       0.66436398       0.10318255      -0.17354323      -0.05513682       0.08719125      -0.00273601      -0.05451353       0.02092891       0.01473741      -0.02471716      -0.04242930       0.02259942       0.01143548       0.68259749       0.09202340      -0.18783890      -4.03008461
H        2.54084444       1.93223000      -0.01767856       0.21134882      -0.13242091       0.26660007      -0.05828172       0.12594928       0.01338615       0.03621850       0.01829677       0.00598887       0.01509898       0.01890908      -0.01186396       0.09331314       0.24170671      -0.11241680       0.30127777      -3.82135101
H       -1.69969356       1.18510377       1.32092524       0.00496027       0.18013465       0.19741598      -0.04702409       0.00921116      -0.01289748       0.07270816      -0.02006836       0.03679771      -0.03231652       0.07799840      -0.04072891      -0.02063281       0.00354580       0.14746157       0.20319979      -3.82781392
49
Properties=species:S:1:pos:R:3:original_dataset_forces:R:3:LES_q:R:1:LES_BEC:R:9:forces:R:3:energies:R:1 original_dataset_energy=-214.56011962890625 energy=-214.58571099759374 stress="inf inf -inf inf inf -inf -inf -inf inf" pbc="F F F"
O        1.16572297       0.81509274      -4.55985260       0.18035583      -0.83478367       0.12756306       0.29559916       0.43136235      -0.28244671      -0.02224359      -0.18015882       1.21480319      -0.47332066      -0.11470139      -0.12132626       0.88860733       0.17625884      -0.84525569       0.13936509      -4.60491194
O       -2.07996726       1.45465040       0.69610286      -0.86842912       0.76847696      -0.89977700       0.25852570       0.85640605       0.21463521      -0.08597317       0.15180490       0.99257465      -0.31247334       0.13758735      -0.25849256       1.19868411      -0.88238450       0.81389366      -0.94661479      -4.78244055
O       -1.37622070      -3.89421606       1.84498429       0.87473726       2.92313480      -0.05996052       0.30772248       0.54858236       0.27882268       0.10369262       0.47696608       1.61478124      -0.17236360       0.06741905      -0.23103587       0.56912276       0.90030838       2.88468686      -0.08645551      -4.59019130
O        0.56028306      -2.56145859      -1.10280704      -0.33806416       0.90827519      -0.06693750       0.28078622       0.71946931      -0.22499234      -0.29872252      -0.37993461       1.24738672       0.19104756      -0.22349957      -0.03497110       0.57741395      -0.30644796       0.88530587      -0.07860776      -4.67618947
O       -1.10132444       0.90831870       2.57170224       0.25693977       0.43675172       0.99648988       0.29966864       1.19445216       0.13745611       0.49244793       0.25546118       0.98168838      -0.10073925       0.27091115      -0.07751119       1.00748190       0.18303204       0.45689359       1.02683194      -4.68564698
C        1.49596369      -0.35123420      -4.31918573      -0.24121967       1.55015302      -0.33243287      -0.06946154      -0.27886892       0.35531005       0.28586463       0.29265072      -1.41471443       0.59950679       0.33199911       0.41319671      -1.67094669      -0.26962192       1.57350767      -0.29782292      -5.85192016
C       -2.06986809       0.83474106       1.77830267       0.48863137      -1.80079019       0.29195359      -0.07308487      -1.38579905      -0.33234057      -0.38705590      -0.52387594      -0.77141369       0.70142642      -0.39910173       0.53689228      -1.65656589       0.55119107      -1.86064016       0.38139243      -5.45465437
C       -1.09382129      -2.67797971       1.62157321      -0.51579505      -3.49873233       0.69357872      -0.07493404      -0.61314271      -0.50435589      -0.56567168      -0.75681191      -1.82684639       0.07748420      -0.52212345       0.01490905      -0.79471667      -0.51757918      -3.49125755       0.75337261      -5.53597187
C        0.08184266      -1.42458224      -1.06117487       1.39409161      -1.30685079      -0.84425354      -0.06920920      -1.10783144       0.37602187       0.80777437       0.46710205      -1.40260464      -0.09689160       0.74341448       0.12061279      -0.73752392       1.28664009      -1.36608001      -0.75785883      -5.67812867
N       -0.26217431      -1.92442214       2.36850142      -0.21951734      -0.02620050       0.20485508       0.09447903       0.49375307       0.27643150       0.40370566       0.21638689       0.60164913       0.13629065       0.38811944       0.13121180       0.66334656      -0.21695898      -0.15715367       0.27640338      -4.84346346
N       -0.95253122      -1.09733033      -0.30356607      -1.32336450       0.52082771       0.73573613       0.07757951       0.89074216      -0.17570852      -0.50233470      -0.09324949       0.55413101      -0.07772672      -0.53300536      -0.05309865       0.68091037      -1.28296208       0.46674693       0.62393108      -4.77723442
N        1.34034383      -0.90238047      -3.10595608      -0.03963349      -1.32270098       0.88247645       0.10020129       0.29260152      -0.02645762      -0.36688893      -0.04476238       0.59163797      -0.13988928      -0.22224329      -0.30375056       1.32682868      -0.03977781      -1.31727524       0.83907876      -4.58791280
C        2.14500904      -1.24083841      -5.37103748      -0.39341635       0.34025955      -0.51929456       0.08705657      -0.08582933      -0.07167685      -0.07710397      -0.09918935       0.02452965       0.15242334      -0.06148880       0.07091894      -0.02184473      -0.38353229       0.35561877      -0.51867787      -4.47317247
C        0.37872601      -2.38973832       3.61533666      -0.26586184      -0.64314789      -1.11322379       0.07776709      -0.20712447      -0.04296583      -0.03690879       0.03818492      -0.17220898       0.09471516      -0.14630378       0.08953706      -0.47299837      -0.31460929      -0.62579698      -1.15154033      -4.79434329
C       -3.12005568      -0.29861569       2.04257846       1.11825252       0.92804736       0.20642556       0.10989831       0.15251913       0.11693050      -0.07100486       0.27211071       0.08383545      -0.11948345      -0.10737618      -0.05052088       0.00561153       1.13247158       0.99851241       0.20322594      -4.59520791
C        1.18407547       1.77663255      -0.59925783       0.25915986       0.17147961       0.46545407       0.09736000      -0.09349638       0.04707840      -0.03462231      -0.00875140      -0.07318899       0.10262125      -0.00675117       0.04881726      -0.05792500       0.26382971       0.18544574       0.45969300      -4.93360742
C        1.87855470       2.56343675       0.51661259       0.70491904       0.07571124      -0.79965621       0.10300312      -0.11647386      -0.07609558      -0.05902895      -0.01786828      -0.20404787      -0.01985424      -0.08745181      -0.06484842      -0.12876795       0.73026063       0.02328847      -0.87957378      -4.66418581
C       -3.11580324      -1.36026514       0.94042528       0.16350795       0.70572084      -0.31059939       0.09031425      -0.08043685       0.11488071       0.07424669       0.11711063      -0.08489520      -0.11906967       0.16673079      -0.03543580      -0.25910369       0.24207852       0.65056288      -0.37167934      -4.82058109
C        1.80608881       0.48519939      -1.10899329      -0.50094575      -0.05258708       0.96190441       0.09546736      -0.06904194       0.06095125      -0.07073256       0.00465111      -0.08031811       0.04230596      -0.05595024       0.02221078      -0.06245669      -0.43040563       0.01064546       1.00753866      -4.71384926
C        1.01718700       3.74091029       1.02019799       0.43809405      -0.47399500      -1.52735507       0.01643601      -0.52422112      -0.14184403       0.09277132      -0.03099646      -0.24719370       0.05522008       0.14766992       0.06414180      -0.20380397       0.41143374      -0.44962059      -1.53692606      -4.91911065
C       -1.81137633      -2.03570437       0.44929349       0.47463116       0.64768052       0.31156516      -0.01532460      -0.57119964      -0.25706355       0.25338901      -0.06329306      -0.24137124       0.03631012       0.24780601       0.08413708      -0.26282150       0.50200676       0.67703143       0.23205283      -5.09611495
C        0.72523272      -0.28392470      -1.90942848       0.50171566      -0.44660354      -1.04400361      -0.01171141      -0.28394970       0.01672763       0.06999227       0.03183753      -0.10624153      -0.29096227       0.02585018      -0.15476584      -0.45769167       0.45200653      -0.46352352      -1.04227723      -4.98958079
N       -0.28740704       3.27557015       1.55842841       0.53731006       1.87282920       1.04995191      -0.04396429       0.44685578       0.18552163      -0.03758913       0.12623809       0.64689319       0.06279926      -0.07808573       0.07372840       0.25964197       0.65075511       1.88550661       1.11436277      -3.76542121
H       -0.26963216      -0.93397427       2.16428447       0.11750624      -0.08982134       0.27759069      -0.16364329      -0.23808214       0.06937463      -0.00675705       0.07401890      -0.47838381      -0.07420889       0.02160664      -0.05990647      -0.21829874       0.10554117      -0.02401644       0.22339897      -3.73921183
H       -1.29080820      -0.15987808      -0.34664854      -0.20266543       0.58610034      -0.07029140      -0.17409430      -0.16928301       0.12663180       0.01862133       0.17582412      -0.36700535      -0.12888197      -0.01232979      -0.13356337      -0.20273159      -0.22331056       0.56599882      -0.02816572      -3.65434523
H        1.67721379      -1.85657763      -3.00431585      -0.38670450       0.33930463       0.32356885      -0.19397369      -0.20860354       0.02598707       0.00085965       0.00428610      -0.28895746       0.05890077      -0.01452041       0.04919178      -0.16310010      -0.36633149       0.31258080       0.31829488      -3.56986820
H        2.11267185      -0.70492542      -6.34516907       0.15324728      -0.42779526       0.82384688      -0.04538515       0.00005265      -0.01160421      -0.03742910      -0.00151426       0.00570431      -0.03349843      -0.04552007      -0.00548386       0.17579277       0.14621024      -0.42891133       0.82421555      -4.01675410
H        3.16588593      -1.48322463      -5.08801460       0.10868601       0.12901205      -0.06126593      -0.05262254       0.07747991      -0.02557631       0.01283108      -0.01708062      -0.01996460      -0.05107348       0.02859750      -0.00989969      -0.03551737       0.11624013       0.12295941      -0.05896880      -4.01429370
H        1.61207974      -2.18793797      -5.46847248      -0.03841906       0.08987653       0.02271054      -0.05067632      -0.01199896       0.03890497       0.03299061       0.04960305       0.07210567      -0.00234863       0.00983774       0.01143731      -0.01778680      -0.04424142       0.07824400       0.01790902      -4.00669936
H        1.35152400      -2.82503915       3.36219764      -0.18832868       0.03178574       0.26321334      -0.05826266       0.06556051      -0.05335142       0.05132625      -0.04607628      -0.00976455      -0.01135591       0.00234180      -0.02237019       0.04055983      -0.18964242       0.03519273       0.27418706      -3.98869951
H        0.50243044      -1.59612918       4.32389927       0.05541435       0.66212481       0.03491725      -0.05899580      -0.02043781       0.01556431       0.03240262       0.02762407      -0.00925402       0.04817328       0.02669271       0.00870594       0.12662949       0.05609991       0.64287373      -0.00056170      -4.01430013
H       -0.23978764      -3.14500451       4.09705639       0.01912794      -0.08341540      -0.25999922      -0.04332261      -0.00337882       0.05768993      -0.08516309       0.00526063       0.02766339      -0.05465008      -0.00455788      -0.03056673       0.00457891       0.02220249      -0.09394728      -0.25489045      -3.99115476
H       -2.97475982      -0.73648334       3.03900576       0.34420103       0.15881915      -0.39929917      -0.05352448      -0.02955140      -0.00121453       0.01211526       0.03241289       0.04481764      -0.04679919      -0.04073614      -0.02702991       0.18438203       0.36776319       0.17155947      -0.42588524      -4.01475748
H       -4.10026455       0.14875966       2.07174730      -0.40084052       0.14977165      -0.19318186      -0.05814604       0.15960202      -0.03300198      -0.06688801      -0.09323152       0.04834310       0.05596430      -0.04044952       0.01665777       0.01465218      -0.41011794       0.17873230      -0.18527329      -3.92796486
H        1.02134478       2.40903330      -1.45375884       0.11443904       0.48524001      -0.43847233      -0.06099833      -0.03731527      -0.05375388       0.05730849       0.01245525       0.09094674      -0.05955454       0.02086830      -0.05808943       0.06110453       0.13674801       0.47551223      -0.45959132      -3.87389879
H        0.20345938       1.56166506      -0.27002636      -1.12953091      -0.49450904       0.49532104      -0.02946309       0.06554781      -0.05194707       0.00896483       0.02771005       0.00108501       0.02138542      -0.00649556       0.02619055       0.00631961      -1.11574463      -0.48404610       0.45041176      -3.85574304
H        2.15206337       1.90670133       1.35668325      -0.07138882       0.21392530      -0.28509426      -0.06380881       0.03313541       0.04494495       0.05710225      -0.04281488       0.03623649      -0.03133439       0.08319694       0.00920069       0.06462298      -0.04778493       0.22817915      -0.24549346      -4.00847236
H        2.82161713       2.97481275       0.05557224      -0.79788131      -0.20559284       0.88789570      -0.06140655       0.12588748       0.00796468      -0.03517126       0.02261705       0.01784906       0.01026404       0.01317002       0.08822783       0.03210777      -0.80089483      -0.22397854       0.88476013      -3.91968467
H       -3.58147621      -0.92756867       0.06802249      -0.16582948       0.13109276      -0.33869496      -0.05278454       0.02441588      -0.03105246       0.02353769      -0.06450532       0.03061935      -0.01594788       0.07536345      -0.00272284       0.08975801      -0.19315048       0.13009889      -0.32138147      -3.88778878
H       -3.80169201      -2.07822800       1.33028769      -0.17990954      -1.05103815      -0.16896960      -0.06037084       0.06292442       0.05681290      -0.04737579      -0.05253678       0.02436628       0.06615138      -0.09836809      -0.00513528       0.05199495      -0.17929456      -1.01695961      -0.15542264      -3.86982115
H        2.22818279      -0.13106328      -0.28737402      -0.40736559       0.25153017      -0.45098731      -0.06150978       0.03343067      -0.05899041       0.04590640      -0.03347707       0.03434377      -0.05631412       0.07883528      -0.04174131       0.02753276      -0.42063997       0.29032507      -0.44513713      -4.03260520
H        2.61490154       0.73160356      -1.75979245       0.52390832       0.00769120      -0.52364552      -0.06319193       0.08398264       0.01225139      -0.05850347       0.00486547       0.01729760       0.02303281      -0.08109943       0.00833366       0.01739861       0.48552682       0.03759925      -0.51766041      -3.93875249
H        1.56366765       4.24074697       1.79090285       0.03019043       0.50078976       0.46253195      -0.06960255       0.00369706      -0.02674484       0.01842504       0.01927692       0.01723116       0.05196860       0.03563582       0.10442116       0.04463178       0.01486634       0.46001999       0.46600660      -3.91187157
H        0.83117485       4.42710018       0.15918165      -0.02098977      -0.43359739       0.87431419      -0.06426164      -0.02686796      -0.08000422      -0.01661076      -0.02041585       0.04051025      -0.05344088      -0.00736171      -0.09910391       0.03237523      -0.04077579      -0.40679010       0.87555132      -3.91491026
H       -2.09641504      -2.83353519      -0.22327197       0.08627906      -0.23382822       0.07215361      -0.05811803       0.10692565       0.10882362      -0.03576511       0.02278405       0.11710568       0.02967205       0.03801879       0.10369639       0.03868464       0.07514922      -0.24823258       0.12027153      -3.78802475
H       -0.04176986       0.40074962      -2.30732799       0.33739206      -0.14990579       0.37849936      -0.04900403       0.04991100      -0.03509961       0.06483591      -0.04540195       0.06574348       0.00051527       0.03864508      -0.01066126      -0.01173037       0.37396829      -0.15661747       0.39346280      -3.85445042
H       -0.87811768       2.77275896       0.92670929      -1.11694348      -0.97349483      -1.40428662      -0.10344023      -0.36284165      -0.16161202      -0.07197159      -0.22674330      -0.52986216      -0.13941497      -0.07778537      -0.17243673      -0.27005297      -1.18836690      -0.92315079      -1.38574444      -3.55021893
H       -0.24019527       2.56761742       2.29026389       0.20587219      -0.77976823       0.50119227      -0.13175569      -0.20790575      -0.07810321       0.03043907      -0.14220135      -0.54781457       0.14943230      -0.01901631       0.04066327      -0.28164305       0.16260609      -0.72897671       0.49978296      -3.48208214
H       -0.85177898       4.04615164       1.93557906       0.32422066      -0.25990254      -0.23569196      -0.18600671      -0.18561534       0.09228587       0.02596532       0.05564754      -0.36982832      -0.08601354       0.00600525      -0.07257213      -0.20274758       0.31938066      -0.28529179      -0.25329064      -3.39066736
48
Properties=species:S:1:pos:R:3:original_dataset_forces:R:3:LES_q:R:1:LES_BEC:R:9:forces:R:3:energies:R:1 original_dataset_energy=-208.8418731689453 energy=-209.06297951071664 stress="inf inf inf inf -inf inf inf inf -inf" pbc="F F F"
O       -1.59408140      -1.30093789       3.00472760       0.53419191       0.64138252       0.24017140       0.24987976       0.53628874      -0.04350271      -0.38343618      -0.33931329       0.98280161       0.45614426      -0.28419406      -0.08954668       0.95078377       0.54006326       0.77224440       0.20520661      -4.74719584
O        1.28061306       1.87640989       1.99111843       0.79109019      -1.40936685       1.27394378       0.27816316       0.92920389       0.13453854      -0.40548398      -0.14070746       1.12256668      -0.16559243      -0.20167459      -0.22046512       0.96008862       0.85458569      -1.28014988       1.25819776      -4.54333918
O        0.98878992       0.63859737      -1.94493723       0.97305149       0.95143700      -0.96354938       0.26020670       1.48518136       0.15174629      -0.27593698       0.04356584       0.44093349       0.02088048       0.19454340      -0.04960501       0.57311860       0.91929327       0.85093251      -0.74456539      -4.63735205
O        1.72341657      -2.22580838      -0.60843968       0.14531162       0.49831638       0.37651631       0.29415497       0.75948466      -0.27154983      -0.20883072      -0.13916619       1.06503997       0.30081925      -0.19280088       0.50310634       0.60986968       0.16495926       0.53884448       0.60458645      -4.56484326
O        1.26858902       3.64819789       0.84832644       1.57830024       2.57007098      -1.16764927       0.31513527       1.14365153      -0.39766265       0.15726271      -0.08190740       1.44640093      -0.21845538      -0.10792176      -0.30400520       0.62816106       1.59012153       2.51093137      -1.23268438      -4.45407502
C       -1.26098514      -2.40912294       2.62289381      -1.67869508      -0.00421027      -0.35589546      -0.08658095      -0.58734276      -0.06110514       0.89507496       0.31507679      -1.09331812      -0.53362396       0.75456849      -0.09443676      -1.45036439      -1.64198642      -0.13189457      -0.44198699      -5.83663191
C        1.85134363       2.60152364       1.13291180      -2.98048854      -1.84852529       0.36083162      -0.09479333      -0.90809253       0.56598977       0.48193012       0.28430886      -1.74473771       0.51137520       0.55953475       0.69245211      -0.96617808      -2.92385690      -1.98012721       0.29639363      -5.36760768
C        2.20878243       0.78483379      -1.79177284      -2.32856464      -1.37508762      -0.00079307      -0.06025518      -1.65370470      -0.25842867       0.43035358      -0.20693111      -0.17484169       0.24420364       0.51409647       0.35237542      -1.34681361      -2.08762684      -1.48774211      -0.04284969      -5.51093589
C        1.20098734      -1.34817100       0.08952577      -1.41204548      -4.04981995      -2.13215017      -0.06885315      -0.85419023      -0.05909190       0.31913185      -0.11474509      -1.64608336      -0.47047319       0.33402707      -0.62757156      -0.44174451      -1.38556538      -3.80894476      -2.12878308      -5.68315950
C       -1.49822414       1.78924692       0.22423436      -2.04652071      -3.71172237       1.77079701      -0.03447728      -0.70649066      -0.63166159       0.08966624      -0.70646542      -0.92943941      -0.02346596      -0.10311017       0.06808472      -1.29189143      -1.68185450      -3.39420917       1.32091759      -5.72783544
N       -0.72832519       2.59926295      -0.34828141       1.70562780       3.02962041      -3.67452431       0.06622568       0.51198858       0.33944623      -0.21155290       0.38211405       0.64207861      -0.12941523      -0.10418599      -0.05908488       0.58368566       1.54418348       2.94393810      -3.39049927      -3.86701651
N        3.07008576       1.05079389      -2.79355574      -0.77030808       1.12963331      -1.10070264       0.06963734       0.78330524       0.16214268      -0.32024091       0.23130916       0.24431123      -0.33600024      -0.49482848      -0.23550553       0.96626617      -0.82278785       1.10389366      -1.05774892      -4.81136640
N       -2.24803257       0.83271456      -0.43645728      -1.16650081       0.73947722       6.22842884       0.06576810       0.44005967       0.37866193       0.10931248       0.52564326       0.63934215       0.20996949       0.06828031       0.17932740       0.62292057      -1.39475382       0.53596874       6.06179832      -4.14526910
N        1.68826818      -0.17577425       0.32839656      -1.00634694       2.45571041       3.30709887       0.06276267       0.44085708       0.43192184      -0.16305418       0.39318897       1.09171487       0.11815427      -0.43384724       0.10384439       0.62775548      -1.22725024       2.37646383       3.04689105      -4.68417343
N       -0.65678209      -2.63373065       1.43520653       1.52365792      -1.17214668      -0.00756080       0.08608574       0.37808171       0.03595212      -0.43301186       0.00384913       0.56217451      -0.04802714      -0.45385239      -0.13058296       1.19840293       1.45237007      -1.05474989       0.00654286      -4.62099547
N       -1.40830112       1.91979325       1.54866791      -0.51167923      -0.35720789       1.88959455       0.12414922       0.53269700       0.05656164       0.01972625       0.24651972       0.14486814      -0.09217141       0.10554201      -0.13912690       0.89588510      -0.63787681      -0.44676394       2.02989627      -3.54163044
C       -1.80897629      -3.62682748       3.29563332      -0.21853302      -1.87442613       0.01874109       0.08226217      -0.07216061       0.10357084      -0.10557935       0.00457829       0.00606683       0.03022676      -0.00245598       0.06256717      -0.15371452      -0.18778146      -1.83595378       0.04427012      -4.54011066
C        2.67237496       1.62591231      -4.10861349      -0.71158314      -1.91399860       1.70706558       0.06860997      -0.32412264      -0.02214567       0.13981503      -0.01649708      -0.24365024       0.26119170      -0.06255598       0.11167502      -0.45172119      -0.75277494      -1.94305695       1.73850726      -4.90520242
C       -3.09994245      -0.25719047       0.18939500       0.60841680       0.65746379      -2.46122050       0.03024336      -0.27775204      -0.02135531       0.11181519      -0.32876336      -0.29541169       0.08905794       0.13968744       0.06559792      -0.27455950       0.51599049       0.63049529      -2.40937340      -4.91623331
C       -2.83037353      -1.62114644      -0.53887755       1.21985853       0.54171330       1.87509692       0.08303382      -0.15461944       0.10389051       0.03273684       0.06829580      -0.15206986      -0.04695121       0.10258850      -0.04111422      -0.17350851       1.18884003       0.58359863       1.74656788      -4.73488158
C        2.89855528       1.95845854       0.22942694       1.02114367       1.07068098       0.54219788       0.06375913      -0.06118385      -0.14604585      -0.11635553      -0.02459335      -0.05419366       0.10593879      -0.15138729       0.00098218       0.04666936       0.98686901       0.94735575       0.70640665      -4.61482731
C       -1.32155418      -1.83496952      -0.74758267       2.34036922       3.05787969      -0.35941538       0.10429943      -0.26270203      -0.09223895      -0.06642665      -0.03115841      -0.15621742      -0.02190506      -0.03118783      -0.01481940      -0.14700041       2.13271446       2.95168843      -0.34352744      -4.38911039
C        2.71282578       0.52600682      -0.35502943       0.34381494       1.02006888      -0.56938440      -0.01824536      -0.38805159      -0.19550274       0.15110089      -0.39836811      -0.47393686       0.04233518       0.26482450       0.07681856      -0.22202945       0.17272970       1.42890415      -0.86527461      -5.20785328
C       -0.28813687      -1.60526240       0.51767528      -1.93786252       0.76442665      -0.99268156       0.00972874       0.10145180      -0.04879859       0.04672419      -0.09187777      -0.43554807       0.30452697       0.06574211       0.36220910      -0.46162024      -1.91265526       0.78836832      -1.13486493      -4.76457929
H       -0.36791080       2.54150581      -1.28442800      -0.29224321      -0.41375551      -0.06222571      -0.15098783      -0.18444158      -0.05763023       0.07541166       0.05885409      -0.29799258       0.01091006       0.05964007       0.00590890      -0.32736949      -0.09528651      -0.46522055      -0.02619990      -3.55114624
H       -0.35059917       3.36098433       0.20131193       0.62843728      -0.15399060       0.05027670      -0.10088359      -0.57337272      -0.06099636      -0.18907731      -0.19148301      -0.15457189      -0.11521013      -0.20701141      -0.13175352      -0.22456870       0.65966207       0.06958551      -0.02188140      -3.78502555
H        3.98954272       1.25445795      -2.55809021       1.68262279       0.20353928       0.78676355      -0.19517697      -0.21236945      -0.01622910      -0.03716116      -0.08603553      -0.20469878       0.03301960       0.04516946       0.00067737      -0.23401539       1.69761622       0.20473826       0.78689339      -3.57035280
H       -2.11239123       0.72098064      -1.34173393       0.91423565      -0.17434224      -4.88171911      -0.18162291      -0.12382494       0.01001838       0.00360499       0.12413616      -0.15009766      -0.01165240      -0.11809589      -0.01324036      -0.29734104       1.04679602      -0.36573569      -4.67196234      -3.57140840
H        1.15178359       0.38285366       1.08678424       1.53179049      -0.43188438      -1.41105282      -0.13764009      -0.09200109       0.06168654      -0.02004645      -0.00531666      -0.48860058      -0.31947293      -0.11039373      -0.28862837      -0.38178327       1.57690477      -0.65117471      -1.33193691      -3.65596139
H       -0.51982903      -3.56779718       1.08656895      -0.04499712      -0.11804562       0.46208224      -0.20023119      -0.19968173       0.04838569      -0.01177064       0.03242594      -0.19089362      -0.07707568       0.00147038      -0.03442773      -0.20048055      -0.03968247      -0.05021325       0.44170716      -3.58743800
H       -0.49073040       2.36067486       1.91417289      -1.30210137      -1.16044474      -0.53985417      -0.10846043      -0.70196330       0.01491977      -0.05140794       0.00900766      -0.18135088       0.01122227      -0.01073110      -0.10827138      -0.24448846      -1.27068911      -1.11301385      -0.39362391      -3.86578664
H       -1.90524340       1.29960549       2.19610167       0.45496461       0.42728150      -0.65266806      -0.15657461      -0.21112602      -0.08198520       0.03282291      -0.03107534      -0.30334960       0.05611377       0.05180997       0.05132079      -0.25198093       0.50871500       0.31468999      -0.66110351      -3.57645741
H       -2.70084119      -3.51249552       3.89960527      -0.11096068       0.86789632      -0.18169485      -0.04275646       0.08723292       0.03064848      -0.09085761       0.05791502       0.07527911      -0.08769732      -0.08521680      -0.04417463       0.07640085      -0.11312136       0.86274815      -0.21661337      -3.97399285
H       -1.14148724      -4.12914419       3.97436953       0.77223349       0.08936715       0.17965184      -0.04867499       0.04199217       0.00722261       0.01067809      -0.01797367       0.06903354      -0.09684121       0.03428534      -0.08457782       0.08262567       0.78197884       0.06857234       0.18191833      -3.93021172
H       -2.06396532      -4.40895557       2.56591558       0.13967243       0.29241338      -0.01203606      -0.04415020      -0.00357802       0.02520619       0.00733830       0.01825054       0.05356317       0.06279414      -0.05395174      -0.07632281       0.12242859       0.12333511       0.30755231       0.00889452      -3.89712348
H        2.20511460       2.56762409      -4.11986399       0.05661039       1.51766169       0.45106849      -0.06082352       0.00440991      -0.04337397      -0.01684473       0.05534677       0.10751814      -0.16951745       0.00762947      -0.01213782      -0.00646125       0.03480067       1.53973646       0.43142232      -3.99361779
H        1.91768837       0.97986269      -4.41725349      -1.67676115      -1.09502816      -0.61432379      -0.03967224       0.04289406       0.01178076       0.06513336       0.00550640       0.00554821       0.04579764      -0.02864746      -0.04838822       0.10650811      -1.69706157      -1.10344477      -0.59612824      -3.70634684
H        3.37310266       1.46675146      -4.86946964       1.64531314       0.25981477      -0.54058272      -0.05972522       0.03461888       0.01663684      -0.09012663      -0.02550527      -0.02381185       0.00682961      -0.09057576      -0.03744221       0.14537506       1.66676175       0.27377263      -0.57587979      -3.92122824
H       -4.14489079       0.00195014       0.19923465      -0.55359066       0.27334151      -0.97144634      -0.06214171       0.15299549      -0.04417662      -0.04057741       0.01137220       0.03680217       0.00627208       0.01759988       0.02113270      -0.01306113      -0.56282192       0.24070527      -0.84038880      -3.84303147
H       -2.96051145      -0.23060235       1.20918715       1.29294765      -0.64910787       2.18846011      -0.04504622      -0.10710955       0.03410307      -0.03377174       0.00683239       0.02807701       0.03505361      -0.04099170       0.03895330       0.10552800       1.20000623      -0.55478262       2.08699059      -3.91282476
H       -3.17097473      -2.43468857       0.14711760      -0.31091180       0.61228484      -0.91283101      -0.06584004       0.07424448       0.04419980      -0.04013576      -0.02525335       0.07561686      -0.02397521      -0.05479472      -0.02069264       0.01493748      -0.27645736       0.57811235      -0.87711179      -4.00330145
H       -3.27271771      -1.61258948      -1.53893077      -0.33449200      -0.30433044       0.44907472      -0.06438628       0.05326703      -0.03124670       0.01987932      -0.05391625       0.00255163       0.00216547       0.01827313       0.00902984       0.07831734      -0.36971542      -0.28624065       0.45380907      -3.98218760
H        2.83465481       2.63600087      -0.57617265       0.24724893       0.68697888      -1.22614551      -0.05008045      -0.04058663       0.00954280       0.03406673       0.08984836       0.11971228      -0.05042181       0.02938080      -0.01809134       0.04420477       0.18815103       0.72131577      -1.11953331      -3.63177712
H        3.88949513       2.18610597       0.64054126      -0.14484568      -0.66501141       0.13017602      -0.05250843       0.14654048       0.03714885       0.03316067       0.11148228       0.06989775       0.04748203       0.04629109       0.03955273       0.01189628      -0.07997553      -0.59502421       0.11315609      -3.93381469
H       -1.10322261      -2.74381495      -1.19957554       0.18016148      -2.22611427      -0.17129610      -0.05619803      -0.00503705      -0.09356347      -0.02101051       0.01170972       0.13751311       0.07211038       0.02341120       0.10784380       0.05980656       0.19720075      -2.25026844      -0.22522623      -3.92144224
H       -0.94198197      -1.20408797      -1.60905540      -0.47088602      -0.03870325       1.16617560      -0.03173398       0.05019700       0.00352430      -0.01258439       0.00874741       0.04180084      -0.05046898      -0.02406077      -0.05577180       0.12051896      -0.36995961       0.02052071       1.17470949      -3.92323280
H        3.67147183       0.02557734      -0.45962703      -0.00533337      -0.32224509       0.51956266      -0.06481453       0.06704749      -0.05599722      -0.02724971      -0.03584844       0.07394771       0.00246290      -0.07294304       0.01771994       0.03524765      -0.02913010      -0.35945426       0.56419623      -3.90428064
H       -0.60647196      -0.75356877       1.06869614      -0.31431162       1.11140144      -0.01104168      -0.02946552      -0.09218608      -0.08515799       0.10578486      -0.00698325       0.10965489       0.00135689       0.08302092       0.10860516      -0.10470637      -0.18397733       0.99248785       0.03986796      -3.78642442
45
Properties=species:S:1:pos:R:3:original_dataset_forces:R:3:LES_q:R:1:LES_BEC:R:9:forces:R:3:energies:R:1 original_dataset_energy=-202.7589569091797 energy=-202.77231130075413 stress="inf inf -inf inf inf inf -inf inf inf" pbc="F F F"
O        2.16118860      -1.11790490       1.01673436       1.17507470       0.06963338      -0.13044795       0.20566028       0.69261091       0.11952523      -0.07832293       0.65230763       1.20871943       0.36072119       0.15605536       0.28757713       0.53438024       1.17141533       0.14978950      -0.09686356      -4.74180277
O       -3.67390800      -1.33386695      -1.09213364      -0.96997559      -0.44321293       0.10811735       0.28034639       1.39651414      -0.19228267      -0.12124793      -0.24658247       0.81817753      -0.02691851      -0.07715073      -0.13628007       0.47454578      -0.98627438      -0.33677034       0.07253316      -4.73669145
O        2.54407072       3.39287138      -0.52753538      -1.27834427      -0.28921068       0.48668334       0.29691002       0.82093817       0.29366587      -0.09752637      -0.05953896       1.09680706      -0.45076961       0.02909601      -0.42114469       0.57036673      -1.31454737      -0.31862033       0.50887239      -4.54285941
O       -1.13410676       0.60694659       1.76950979      -0.13807704      -2.04752636      -0.41620213       0.28945076       0.65282761       0.03369989      -0.34952197      -0.17357080       0.72101073       0.30846445      -0.49053323       0.03976207       1.00839716      -0.15802559      -1.96970088      -0.33807491      -4.57626932
O       -1.62186623      -1.13821352      -1.84610486       1.03394449      -0.18946068      -0.72797036       0.32971999       1.14842155       0.20785952      -0.26505340       0.48713357       1.01672409      -0.27680791      -0.24609188      -0.17765601       0.67932769       1.05934549      -0.20841938      -0.73781074      -4.61276124
C        1.84371543      -2.12235689       0.39294809       1.24296570      -0.20795818      -0.43608093      -0.10793119      -1.76157357       0.04515299       0.06012265      -0.50012326      -0.93580345      -0.62393207       0.01607623      -0.53624572      -0.59022198       1.23764547      -0.25996754      -0.57778628      -5.72193670
C       -2.50781822      -1.78321242      -1.27108955       0.23623092       1.29102695       0.73574317      -0.04218146      -2.10085821       0.05099112       0.38080272       0.20595956      -1.18376114       0.56808826       0.49984809       0.64574742      -0.57694511       0.27603550       1.31857813       0.72947548      -5.60858506
C        2.13293338       2.36738849       0.04544401       1.29673314       1.78406799      -2.40721130      -0.09529968      -1.31976054      -0.14806782      -0.07407747       0.05998822      -1.39732918       0.66515253      -0.09472526       0.66872987      -0.46573915       1.35691991       1.88863059      -2.45198429      -5.52298039
C       -0.55551541      -0.06409397       0.88964087       0.12963101       2.21314216       1.51718163      -0.11700334      -0.64570803      -0.05406077       0.75040934       0.02303886      -0.96349401      -0.05459111       0.79127296       0.12167476      -1.25270830       0.22725837       2.18145479       1.47911678      -5.47254125
C       -2.16243267       1.69704020      -1.57651138       0.61808914      -0.01196950       0.61131835       0.03563461      -0.08537531      -0.00967483       0.05167004       0.04483559      -0.15794335      -0.09271696       0.28235366      -0.09957709      -0.06795356       0.45026586      -0.19083843       0.71068023      -5.25273496
C       -1.68143952       2.64993858      -0.70834982       0.38362545      -0.96068150      -1.82691884      -0.03409187      -0.17692265      -0.34706401       0.13283022      -0.31245053       0.02201120      -0.05702529       0.01497503      -0.15702863      -0.22441316       0.30698159      -0.96657079      -1.88189779      -5.40919368
C       -3.51937795       1.78898275       0.16347563       0.63729709       0.47097135       0.72882652      -0.06828301       0.02152335      -0.28494358      -0.11690809      -0.27777865      -0.36471131      -0.18393356       0.07924283      -0.25978805      -0.34805518       0.59451622       0.52146170       0.87517337      -5.80629537
N       -3.34153152       1.20947146      -0.99700713       1.21006787       0.64481568       0.15321176      -0.04254347       0.12363150       0.17727100       0.04546704      -0.09779254       0.50353909       0.09404523      -0.14194976       0.26098666       0.23477459       1.20608037       0.63555204       0.00216160      -5.00928251
N        3.04048014       1.54124188       0.55491775      -2.26036859      -1.50858378       0.79471368       0.11325499       0.81957889      -0.31874030       0.20907171       0.03442690       0.74978119      -0.21163151       0.13807466      -0.26069096       0.28687226      -2.35114139      -1.49100507       0.79691643      -4.76769487
N        0.13434255       0.67344397      -0.00146252       1.62089276       0.34763771      -0.81340778       0.09902872       0.65601489       0.22743301      -0.25082728       0.30254520       0.87086729      -0.30492773      -0.22001926      -0.10394426       0.67223481       1.46386782       0.47047312      -0.98178919      -4.48857957
N        0.56942391      -2.46983743       0.45590073      -0.59799260      -0.53030872      -1.75399983       0.07786983       1.27523207      -0.30434752       0.08989671       0.03729586       0.65373310       0.17083490      -0.21528587       0.30316006       0.18087183      -0.50345936      -0.40706013      -1.74907256      -4.62332468
N       -2.58477283       2.75823426       0.32394058       0.40933388      -0.25755739       0.47743937      -0.05445755      -0.07566851       0.46151901       0.00439690       0.21997819       0.19057272       0.19614611      -0.05470916       0.15230145       0.26495435       0.51697322      -0.26590656       0.43501368      -4.91082786
C        2.82592654      -2.96196699      -0.48978779      -1.99160886      -2.00217509       0.07499837       0.08135024       0.00732541      -0.02318894      -0.11482054      -0.11442493      -0.00308973       0.11638413      -0.04691629       0.03940146      -0.03353602      -1.98424007      -2.00634436       0.05030132      -4.31358342
C        4.45818043       1.71119392       0.54219300       0.31433803       0.96521896      -0.32477289       0.08141632      -0.42038745       0.01664639      -0.00501160      -0.12420704      -0.12357054      -0.00700333      -0.02685883      -0.00517546      -0.15703944       0.34531911       0.93323198      -0.35795619      -4.84748218
C       -2.10662866      -2.97985506      -0.43757111      -2.39508033      -0.06832653       0.18842755       0.08634812      -0.11321408      -0.21760255       0.05265043       0.04523588       0.18103544      -0.15991389      -0.03434314      -0.33774728      -0.03843917      -2.39344815      -0.18991334       0.08851570      -4.67911302
C       -0.23247319       3.06990194      -0.74707437      -0.99428934       0.48254910       2.43124771       0.04616926      -0.00626749       0.01103310      -0.02642566       0.03888812       0.00259707       0.03378876      -0.05339580       0.21024319      -0.19809213      -0.98161750       0.51022882       2.38791051      -4.94971758
C       -1.75442469      -2.50429630       0.98033994       0.59838116       4.28626728      -2.10482335       0.10850107      -0.19184050      -0.06833457       0.09724194      -0.25897294      -0.50895644       0.05815474      -0.05165122      -0.31040014      -0.08780257       0.46916819       4.24957680      -2.02369918      -4.49388263
C        0.59063244       2.12342954       0.14972627       0.19811723      -1.42293859       2.08293366      -0.00974533      -0.15589518      -0.04645369      -0.05245706      -0.09344499      -0.77576469       0.00044438      -0.02433347       0.03282689      -0.21324608       0.35723211      -1.48748999       2.22368687      -4.77110116
C       -0.41805029      -1.61331213       1.03255796      -1.81264925      -1.85721707       2.40597701      -0.00735868      -0.34523016       0.11493957       0.03929362       0.10800793      -0.23265052      -0.10290537       0.05278137      -0.05556276      -0.27204412      -2.00354142      -1.88659201       2.20901174      -4.93685563
H       -1.51725173       1.16428185      -2.32322454      -1.62329352       0.60346270       0.63099122      -0.06065380      -0.07307070       0.03351439      -0.09287217      -0.03393359      -0.17856868       0.02949076      -0.02747791       0.07083118      -0.04114221      -1.54956463       0.57546679       0.66665994      -4.14054199
H       -4.03199863       1.27737081       0.96944028      -0.48696131       0.77403045      -0.21638733      -0.07407809      -0.05031493       0.00406860      -0.00051697      -0.02547590      -0.04376659      -0.01747987      -0.07349442      -0.00262286      -0.09476958      -0.40754934       0.70332395      -0.21179664      -4.07695158
H       -3.71238160       0.24137108      -1.08061850       0.06381663      -1.26695430      -1.00599480      -0.08997608      -0.19800202      -0.01472383      -0.03788850      -0.02388181      -0.52661832      -0.03132787      -0.13327697      -0.02155246      -0.12940420       0.12043430      -1.22052971      -1.02179955      -3.95854845
H        2.67437577       0.63125288       0.80528277       0.32123184      -0.13882612       0.26696023      -0.11541601      -0.18540143      -0.18308980      -0.00531081      -0.25431509      -0.68198728       0.03999950      -0.09054482       0.05021918      -0.15096419       0.34019810      -0.17257071       0.32836812      -3.84721189
H        0.47030795       0.15198128      -0.78966165       0.32091850       0.15024740      -0.27598634      -0.18751459      -0.22144105       0.01167692      -0.01382797       0.00282822      -0.20370120      -0.04961963      -0.00221521      -0.03122903      -0.26821573       0.36413391       0.00337832      -0.27210981      -3.68585901
H        0.19935858      -3.33693433       0.08643621       0.55517799       0.46174815      -0.28914133      -0.20505254       0.04475653       0.06330462      -0.05170657      -0.09931643      -0.26710521       0.06033347      -0.05812866      -0.02151875      -0.13839925       0.56783482       0.36659808      -0.25846102      -3.49272336
H       -2.35530949       3.27561116       1.17371511      -0.49947366      -0.60481417      -0.40758514      -0.19678964      -0.15234699      -0.05864479      -0.05321663       0.07342337      -0.28392540      -0.03305247      -0.00925891      -0.05536419      -0.27709355      -0.54682713      -0.53764873      -0.40055257      -3.70681375
H        2.62892866      -4.11321878      -0.41624326       0.08715905       2.11071301       0.03619358      -0.03959205      -0.01408395       0.04275347      -0.00769341       0.06956871       0.04893194      -0.00641331      -0.00372066       0.01264551       0.00154498       0.10712620       2.10498542       0.04719038      -3.96152873
H        3.82619739      -2.82457066      -0.18995690       1.02765286       0.43760613       0.45610571      -0.05241076       0.08957172       0.00727078       0.00614577      -0.01183138      -0.00854544       0.00566685      -0.03315773       0.04280879       0.00176667       1.05414838       0.45537563       0.44657482      -4.07285616
H        2.73942518      -2.73922873      -1.56685364      -0.18200971       0.22358964       0.58890831      -0.04994186       0.00144893      -0.00999518      -0.02803713       0.01200822      -0.02838109      -0.00309921       0.04173389      -0.06842404       0.10464928      -0.14192823       0.21272344       0.59855767      -4.05494854
H        4.85855007       1.30947733      -0.39882377       0.26910850      -0.25590253       0.51638281      -0.05656151       0.07042600       0.02685505      -0.01765915      -0.06983177      -0.04839385       0.01490300      -0.10789231       0.01335205       0.03333245       0.25392229      -0.26244779       0.51333882      -3.98096928
H        4.81624699       1.23147261       1.46612048       0.36489052       0.19160047      -0.71504951      -0.06006719       0.07391478      -0.01467567       0.03463988      -0.00828917      -0.01687117      -0.02292786       0.09969857      -0.01949908       0.03709202       0.37968625       0.22405220      -0.71930352      -3.97705617
H        4.70913219       2.79316473       0.50508708      -0.24767053      -0.74633974       0.34860930      -0.03964837       0.05626312       0.07194720      -0.01721431       0.16332363       0.07665670       0.01952064       0.03303983       0.02622560      -0.00774916      -0.24622385      -0.72342154       0.36866134      -3.95851999
H       -1.39189482      -3.64014125      -0.93143958       0.14409961       0.26213998       0.22785011      -0.04937407       0.08208297      -0.05317890      -0.03237041      -0.06511262       0.11251874       0.03975139       0.02034524       0.13276728       0.06519827       0.12989743       0.38437362       0.34403849      -4.01937366
H       -3.03766108      -3.55470991      -0.25940114       0.54084575      -0.01981235      -0.39256462      -0.05209759       0.14215815       0.21789442      -0.00360018       0.11373982       0.11132607       0.00411992       0.05927568       0.10097497       0.02390966       0.53742061      -0.00316567      -0.45443088      -3.78755840
H       -0.12933069       4.04584599      -0.28505814       0.20279618       0.31068707      -0.35353875      -0.05963108      -0.01712993       0.05953313       0.01630332       0.02814025       0.20520811       0.00986890       0.02957722      -0.04497882       0.01130480       0.16885144       0.29879897      -0.28780164      -3.91876149
H        0.12131381       3.11011291      -1.73527336       0.43463939      -0.01730688      -1.16018188      -0.06368022       0.05687046      -0.03854964      -0.01338353       0.03289423      -0.03449430      -0.01381378      -0.03400879      -0.09878752       0.10439645       0.44539594      -0.06572758      -1.18484353      -4.02551336
H       -1.70002127      -3.38585186       1.45957565       1.08532572      -2.67028928       2.50953150      -0.06290693       0.01441695       0.06323658      -0.01816358       0.11785949       0.26368250      -0.09950802       0.05632121       0.02351816       0.06662483       1.09907452      -2.57962769       2.47800678      -3.72233300
H       -2.48861074      -1.88356364       1.52259326      -0.19629619      -0.44905999      -0.89169323      -0.04576746       0.08210412       0.01946896      -0.07557861       0.00249145       0.06040752       0.03838571      -0.07733852       0.01497009       0.05398912      -0.23642535      -0.42382775      -0.76222838      -4.00272629
H        0.51127696       2.44255757       1.26123333      -0.77010030      -0.91257995      -1.74116659      -0.05012682      -0.02030136       0.00274076       0.02055597      -0.01072439       0.00752707       0.00050064       0.02357079       0.04663627       0.09399083      -0.75933097      -0.92566594      -1.71840568      -3.75189026
H       -0.19720381      -1.69745278       2.10437226      -0.08420599       0.79305190       0.01364049      -0.05096836       0.00216190       0.00361749       0.02974194      -0.01431961       0.04759839      -0.00444656       0.00514016      -0.07214220       0.12944908      -0.04300400       0.71177840       0.12790225      -3.56432764
45
Properties=species:S:1:pos:R:3:original_dataset_forces:R:3:LES_q:R:1:LES_BEC:R:9:forces:R:3:energies:R:1 original_dataset_energy=-202.99118041992188 energy=-203.10394903131797 stress="inf inf -inf inf inf -inf -inf -inf -inf" pbc="F F F"
O       -2.77096987      -1.95703590      -3.46989870       1.38037777      -0.59160078      -1.98155737       0.28122982       0.83341562      -0.19969986      -0.21639206      -0.08688230       0.53205041       0.41089954       0.02218987       0.31156841       1.05434826       1.38125808      -0.63221605      -2.02944342      -4.51986344
O        1.44801378      -0.16465127      -2.12177992      -0.72084385      -0.10264543       0.26129907       0.25491127       0.85967413       0.03129318       0.11365994      -0.16297715       1.25000622      -0.21236283       0.07551485       0.08296343       1.02259106      -0.80437218      -0.20454928       0.17300845      -4.81242568
O        1.10449886       1.46846116       3.32507634       0.61218715       1.00837719      -0.03766428       0.25070122       0.91899526       0.38673698       0.27483104       0.26740175       0.49368567      -0.14138747       0.45873307       0.17949878       1.01284085       0.75923467       1.01246888      -0.02193444      -4.79125403
O       -2.33580065       0.51528358       0.68477178       1.44155753      -1.32521713      -1.41545773       0.22511771       1.16657872       0.06891065      -0.05753122      -0.17497094       0.50088769       0.17678541      -0.24962052       0.11914602       0.84827385       1.46941706      -1.36831394      -1.43244147      -4.89559929
O        2.64730859      -1.60873365      -1.00260210      -0.82641870      -0.87729627      -0.35342196       0.36880168       1.35269720      -0.34672923       0.39688104       0.05753009       0.95467689      -0.06335136       0.50785716      -0.29537244       0.69789290      -0.84523324      -0.90511073      -0.32015910      -4.49428514
C       -3.41404843      -1.40772653      -2.62065053      -3.33935237      -1.61492729      -3.46674299      -0.04672426      -1.09054061       0.16273342      -0.13523293       0.08843817      -0.36895148      -0.63128725      -0.43832256      -0.68175698      -1.71936950      -3.27827940      -1.58184980      -3.35848482      -5.94233943
C        1.61732316      -1.36645389      -1.67117655       0.48760417       1.06073391       0.68414152      -0.08195708      -1.43599250       0.05015582      -0.66869331       0.02621488      -1.59404119       0.43011387      -0.68253962       0.49167697      -0.72411195       0.50842491       1.18061010       0.72862515      -5.37383406
C        0.22549492       1.20619881       2.53738809      -0.14692083      -1.53045487      -0.60695565      -0.08970930      -1.17655220      -0.72198698      -0.27982053      -0.67920042      -0.69460987       0.38061527      -0.35880299       0.04120004      -1.21485285      -0.31384252      -1.53427239      -0.76023215      -5.39157969
C       -1.36271369       0.15783352      -0.04018396      -1.42302394       1.51464117      -0.17471534      -0.08840225      -1.67328683      -0.40944331       0.27947263      -0.29074152      -0.67230700      -0.48606253       0.42634468      -0.42354717      -0.79902695      -1.51031280       1.60473282      -0.09479940      -5.44871193
C        3.78230929       2.27995634       1.39826512      -1.28132176       1.62692654      -0.15943360       0.01940193       0.02638808       0.13142962       0.03044526       0.04488746      -0.15026416      -0.12026728       0.25001150      -0.06039136      -0.05801116      -1.12154860       1.62446666      -0.15031292      -5.51708326
C        2.71801925       2.13046050       0.57798207      -0.96017003      -0.10113388      -0.02490238      -0.02898944      -0.63448296      -0.17058774      -0.09508010       0.24024958       0.00630601      -0.04831900      -0.35068766      -0.22359434      -0.28923202      -1.16635171      -0.11677699      -0.18075908      -5.67043713
C        4.38519478       0.95519543      -0.21492893      -3.33789301      -3.28993082      -3.24107099      -0.05734044      -0.59819075      -0.17800477      -0.25294663       0.07297435      -0.18402223      -0.12694210      -0.19827615      -0.05440048      -0.22885533      -3.15240963      -3.39143001      -3.27770943      -5.79733362
N        4.81015015       1.58709884       0.82282889       3.31118464      -1.09805024       3.74358273      -0.04421321       0.48042563       0.04444748       0.21770651      -0.05645934       0.08261548       0.12837882       0.22838878       0.08004409       0.19343869       3.08995655      -1.16825582       3.67889199      -4.95048936
N       -0.72342825       0.24434572       2.86683202       0.19976169       1.13283908      -3.57558179       0.15120034       0.56680624       0.31081000       0.19639276       0.42040438       0.60450995      -0.27002678      -0.14727842      -0.21634014       0.81700790       0.31540387       1.19689536      -3.62098437      -4.60961852
N       -0.17029263       0.79872274       0.02071327       1.00482631       0.42112988      -0.72110176       0.10315888       1.12533706       0.34234304      -0.20604717       0.49327957       0.64448112       0.24472072      -0.13345440       0.27919436       0.72904518       0.96003275       0.45316696      -0.61898439      -4.57038990
N       -2.96189713      -1.13725924      -1.47279096       4.05117273       3.18632412       5.86368847       0.06937133       0.80363184       0.12611875       0.49947142       0.08843175       0.33817287       0.32639083       0.51775309       0.43241770       1.10137435       4.00841651       3.20682006       5.75374199      -4.60162279
N        3.08559418       1.25383115      -0.40231058       1.05179727       0.14488295       0.39822960      -0.05601085       0.82442127       0.17487632       0.26096540      -0.19015683       0.14240427       0.19172244       0.24924550       0.22562880       0.28762713       1.00437191       0.31157915       0.53425360      -4.79975467
C       -4.90982342      -1.16332364      -2.75377584      -0.75928682      -0.73026466       0.01754968       0.09519231       0.11068723      -0.09816303      -0.02796544      -0.07704699      -0.10377823       0.03458386      -0.06407437       0.02321361      -0.09197972      -0.78078860      -0.72733900       0.00463079      -4.37734695
C       -0.73831570      -0.49959144       4.06461239      -1.55908370       1.13725781       2.30941057       0.08343877      -0.05923555       0.05510651      -0.11631470       0.04604565      -0.21810269       0.11152969       0.04055544       0.16062877      -0.41537633      -1.58995129       1.11324112       2.36283946      -4.80349009
C        0.47276601      -2.40708017      -1.87112606       0.56705338      -0.02446145       0.73017710       0.08413638       0.02906082       0.29229703       0.23991102       0.05276643       0.20485744       0.10406844       0.05938630      -0.03955814      -0.16393619       0.59530837      -0.07753589       0.70209724      -4.61695107
C        1.36284673       2.75424743       0.62071764      -0.59399748       0.37040824      -0.47559094       0.03934299      -0.13605485      -0.01709056       0.00375359      -0.10293728      -0.21869376      -0.04060219       0.11599836       0.11718763      -0.03438331      -0.49865725       0.37436662      -0.51818735      -4.94176010
C       -0.77391684      -2.18774939      -0.95071375       0.68301570      -1.32292962      -1.56072295       0.09378938      -0.09158498       0.05263005       0.02023079       0.08506450      -0.14673474       0.01099874       0.00241638      -0.05525204      -0.16343815       0.60094008      -1.22803383      -1.65860322      -4.76835177
C        0.16496268       1.88601398       1.02141678      -1.94649792      -1.96290255       1.25958467      -0.01181768      -0.29157254       0.03294556       0.09814222      -0.16302336      -0.38094017      -0.17095967      -0.05486991      -0.24894771      -0.28926233      -2.04569666      -2.11535905       1.27878253      -4.74636604
C       -1.48334754      -0.89273965      -1.20499992      -1.90299785      -0.00095236       0.77025211      -0.01289176      -0.69746430      -0.04098143      -0.23417733       0.03862313      -0.21135220       0.08138137      -0.05837685       0.11560056      -0.06530587      -1.75779818      -0.06728535       0.81842616      -4.98102190
H        3.81085420       3.02299619       2.17274141       0.60068208      -0.37857503       0.33551246      -0.07472985       0.04227107       0.05330281       0.06815725       0.01250282      -0.02634556       0.04992953       0.02166667       0.03800201      -0.04856178       0.56868871      -0.38651911       0.32805691      -4.09751674
H        4.65853882       0.02724802      -0.76637530       0.79134738       1.04045308       0.76072228      -0.06524695      -0.02677403      -0.03397082      -0.03183990       0.02179755      -0.06110928       0.01563778       0.02408353       0.03458748      -0.04622107       0.85795683       1.16001289       0.74806575      -4.04646013
H        5.52954578       1.09716690       1.44212270      -0.93346244       1.50357378      -1.50856841      -0.20092095      -0.48814463      -0.02915420      -0.08691304      -0.03579440      -0.24064060       0.03565714      -0.27639154      -0.02143344      -0.26255209      -0.95561807       1.45496094      -1.48603043      -3.48927009
H       -1.42025995      -0.00643373       2.12976909       0.79888922       0.67553627       1.30315888      -0.13444278      -0.24418314       0.04936728      -0.25937943       0.02692553      -0.14285559       0.08064106      -0.14127927       0.03716324      -0.45838103       0.77916890       0.68678135       1.28739806      -3.69847457
H        0.45280430       0.66559279      -0.84199840      -0.80926800      -0.14317177       1.37561643      -0.13432440      -0.41603381       0.09374080       0.24633918       0.11917666      -0.20038165      -0.13827060       0.27157414      -0.13189311      -0.51300869      -0.69639847      -0.02343938       1.46780343      -3.86056012
H       -3.46495152      -0.52675164      -0.85394758      -0.53413212      -0.07979774       0.11097362      -0.18224351      -0.07123306       0.02462703       0.02757880      -0.00395268      -0.26019857      -0.09610525      -0.06607889      -0.11746409      -0.33236343      -0.48774333      -0.12144293       0.08883929      -3.52294968
H        2.42799449       0.66567099      -0.98076785       0.29811233       0.02080663      -0.98836637      -0.10693403      -0.38534401      -0.17082958      -0.28306898      -0.19584960      -0.44244812      -0.25601567      -0.12645310      -0.21582593      -0.51675217       0.31974839      -0.04122192      -0.84290291      -3.97899007
H       -5.50411415      -2.00850344      -3.13792253       0.86160165      -0.03574054      -0.03999614      -0.04053507       0.10024005       0.08080667       0.06385213       0.18066786       0.08519052       0.10515195       0.08841480       0.04189518       0.04250290       0.89744238      -0.03548192      -0.03122780      -3.95412700
H       -5.14522266      -0.36114508      -3.43849301       0.13701972       0.48659000       0.16999352      -0.05073301       0.03218700      -0.02821061       0.05231188      -0.08722359       0.02444347      -0.09498635       0.06666338      -0.04983419       0.05083705       0.13247974       0.48301054       0.18078063      -4.01779920
H       -5.30081987      -1.02791691      -1.75493050      -0.35997581       0.64028442       0.07555125      -0.04968349      -0.01698829      -0.00201927      -0.04086283      -0.04095536      -0.02428783      -0.00906627       0.00408176       0.02017900       0.06795637      -0.38175870       0.65683361       0.08494358      -3.90622177
H        0.06659842      -0.19810057       4.72241211       0.36862993      -0.04642719      -0.18697415      -0.03706076       0.00117387      -0.04693677       0.05002816      -0.02272285      -0.04384708      -0.01030833       0.05084776       0.01021199       0.09778634       0.37394498      -0.02877413      -0.18816934      -3.94599294
H       -0.71196139      -1.57968581       3.93243861      -0.21419904       0.11744392      -0.11190513      -0.06241173      -0.04054187      -0.00790803       0.03203769      -0.00681588       0.09397541       0.00057271       0.00061357      -0.01465547      -0.00895187      -0.22778973       0.13165308      -0.12242895      -4.04826636
H       -1.67501104      -0.12454212       4.63550854       1.21370578      -1.29468632      -0.64157534      -0.04934540       0.03734498       0.00430628      -0.05558184      -0.02708542      -0.00036067      -0.01462094      -0.05110951      -0.03443588       0.09975983       1.22804683      -1.29451569      -0.66446031      -3.81809448
H        0.91467178      -3.35364938      -1.57414079      -0.05464964      -0.14777142      -0.11319357      -0.05443139       0.04394817      -0.06425857      -0.02367883      -0.03676083       0.15320264       0.01779222      -0.02919560       0.08100038       0.06157848      -0.06109461      -0.16600280      -0.14209575      -3.89991099
H        0.17222485      -2.46983290      -2.89655375      -0.11641233       0.18093434      -0.61154491      -0.05702985       0.04129432      -0.00242380      -0.01816343       0.02908349       0.03116494       0.03268880       0.00154474       0.02662069       0.13793042      -0.14268527       0.17749526      -0.62659606      -4.03852685
H        1.38468170       3.57646489       1.30697680       0.15280147       0.21076895       0.74879092      -0.06265813       0.01891683       0.03429786       0.00884948       0.08116095       0.14427300       0.08776986       0.03303172       0.07801350       0.00964875       0.17333437       0.28375657       0.74696605      -3.88512875
H        1.14062130       3.30924749      -0.32887679       0.15692225      -0.98926193       0.48954526      -0.05604692       0.02674417      -0.02421017       0.00766418      -0.02111420       0.02118395      -0.05395593      -0.01737462      -0.08134357       0.05672443       0.17224769      -0.98950614       0.50947654      -3.90365695
H       -1.47459483      -3.06771302      -1.02905500       0.82897598       1.08155036       0.05919079      -0.05060601       0.10064039       0.02286229      -0.06924364       0.06567506       0.08271996      -0.01574815      -0.04391629       0.04629823      -0.00207890       0.81674184       1.03818659       0.05030310      -3.98834081
H       -0.31774706      -2.16855502      -0.01994586       0.32134029      -0.20039994       2.23183846      -0.07313399      -0.00479367       0.03708181       0.07035616      -0.00696271       0.03506662       0.01482830       0.02526958      -0.05892101       0.03362962       0.33571627      -0.19445281       2.23309400      -3.81975626
H       -0.73223269       2.52643704       1.16754913       0.53022891      -0.22048230      -0.62835330      -0.05673547       0.08638420      -0.06587179      -0.07808961       0.00351323      -0.01317703       0.01334368      -0.02233636      -0.02467903       0.00497077       0.53357774      -0.22077172      -0.57528975      -3.88677688
H       -0.99154735      -0.44329947      -2.03017735      -0.03022844       0.54967940      -1.07109082      -0.04264740      -0.05026956      -0.00474669      -0.02201561      -0.09318118      -0.02642486      -0.08555605      -0.03174798      -0.02429436       0.01824756      -0.06352919       0.46941811      -1.03878784      -3.77549950
49
Properties=species:S:1:pos:R:3:original_dataset_forces:R:3:LES_q:R:1:LES_BEC:R:9:forces:R:3:energies:R:1 original_dataset_energy=-214.66151428222656 energy=-214.60359152377197 stress="-inf -inf -inf -inf -inf inf -inf inf -inf" pbc="F F F"
O       -1.90581250       1.58373070       2.64116049       1.34471023       0.62505496       0.00332045       0.28058410       0.90581266       0.47627383       0.10246640       0.26712806       0.74134303       0.31480590      -0.26328904       0.15857514       0.74715460       1.30944682       0.64034257      -0.02284730      -4.61480495
O        0.24312353      -0.39520192      -2.39225960       0.38761789      -0.79984492      -0.63250911       0.26454371       1.48176597      -0.24894415      -0.02040376      -0.00705170       1.12916781      -0.04481318      -0.06648174      -0.12957561       0.58313354       0.37772231      -0.73815501      -0.60665987      -4.68952085
O       -1.15894949      -1.86586094       1.75558269       0.02657091      -0.79649061       0.51750600       0.26918402       0.79031559       0.02963613      -0.03744900       0.24224089       1.02546193      -0.48723941      -0.13952531      -0.47523276       0.65330059      -0.00962321      -0.80626957       0.52506169      -4.65530142
O        2.72981000      -2.84680128       1.08531594      -0.20598954       0.15241852      -0.58446616       0.28482872       0.84286144      -0.41550576       0.47508760      -0.49996807       0.88461418      -0.28277122       0.34956702      -0.07802741       0.91937950      -0.18927971       0.17215173      -0.54672861      -4.67005872
O       -1.15648937       1.21150756      -1.98069954      -1.33199430       0.18359904      -0.06464608       0.28923571       0.93902266       0.14272798      -0.06440925      -0.12006461       1.48641518      -0.02220023      -0.14249211       0.02733443       0.56289925      -1.16054951       0.24643492      -0.04223099      -4.62187681
C       -2.90300131       0.90238637       2.64728737      -0.28593543       1.48735189       1.56878436      -0.06293838      -1.03609232      -0.63780273      -0.05062855      -0.42182509      -0.89873019      -0.75322089       0.45673330      -0.66993575      -1.38365206      -0.27716352       1.47579660       1.67777483      -5.91745240
C       -0.93288821      -0.01642019      -2.14223909       1.34720397       0.76970869       1.04609025      -0.08643389      -1.51266763       0.28717972       0.20816507       0.18221216      -1.78285250      -0.26791850       0.30148647      -0.09814821      -0.28675000       1.25482701       0.76343680       1.09779044      -5.50341267
C       -1.02891898      -0.85986733       1.09857869      -0.51859808      -0.43842316       0.11454021      -0.07908104      -1.48042590      -0.24043555       0.12929598      -0.43684599      -1.10576181       0.71973161       0.25060994       0.64970043      -0.48083203      -0.48260263      -0.46221585       0.18204946      -5.67940397
C        1.95010519      -2.12378430       0.46489763       0.47055054      -0.49661765       0.28890559      -0.07714138      -0.70090030       0.51301957      -0.63072418       0.64018907      -0.91386787       0.01868910      -0.57386679      -0.12072960      -1.56617389       0.46001533      -0.45308447       0.26850316      -5.63614062
N        1.53661537      -2.36625147      -0.79525977      -0.19464760      -0.41216785      -0.21123739       0.11720991       0.33909138      -0.13407499       0.26895436      -0.14800177       0.56805221       0.26326209       0.31312855       0.12789152       1.05660401      -0.23764939      -0.44257190      -0.21976846      -4.71853694
N       -3.22960901       0.12644696       1.64271963       0.68153095      -0.95407820      -2.11673927       0.07377348       0.67382788       0.13045682      -0.09153885       0.28244118       0.53761932       0.40786194      -0.11449888       0.57058929       1.05110405       0.71706672      -1.00455302      -2.17812250      -4.71998990
N        0.17064703      -0.32989228       0.79641831       0.67575073       1.00282073      -0.83801985       0.09768686       1.16844645       0.22958713      -0.19957521       0.09472250       0.49084653      -0.07024991      -0.04570598      -0.07447373       0.22689226       0.69511715       1.00875968      -0.89311099      -4.73690430
C       -3.87178659       0.96277255       3.79897308       0.45776510       0.45712808       0.57464182       0.08968709      -0.01465346       0.04294111      -0.09373822      -0.00142234      -0.09815037       0.05354128      -0.17233733       0.02629578       0.07019566       0.46276640       0.45361337       0.55929104      -4.55851385
C        1.92859411      -3.60516739      -1.50423622      -0.71067131       0.23827176       0.72073877       0.07805303      -0.11084955      -0.04875884      -0.00106202       0.06932440      -0.38506871      -0.18227645       0.03211835      -0.14826423      -0.24457255      -0.70667932       0.23929988       0.69737401      -4.76097980
C       -1.96116722      -1.08357286      -1.82183182      -0.82012659      -0.21772075      -0.06676408       0.08482876       0.07846389       0.12705085      -0.02488113       0.23445789       0.16646282       0.09708211      -0.01722787       0.00074834      -0.06657146      -0.78444702      -0.27047894      -0.11645172      -4.69861681
C        2.81208420       1.00044179      -0.04093283      -1.31815052       0.40725812       0.47545061       0.10276900      -0.03759609       0.00861100       0.00758586       0.12545038      -0.10403490      -0.02888270      -0.03906224      -0.06036528      -0.11375358      -1.40416568       0.36331749       0.54121338      -4.76600513
C        1.99335241       2.31804276      -0.19548842       0.35234037      -0.63507819       0.53748655       0.09447979      -0.12910172       0.02328488       0.05696558      -0.05066404      -0.17162350       0.03231460       0.05868660       0.02862912      -0.06561123       0.37550365      -0.58212320       0.46584674      -4.75145434
C       -2.93100810      -0.79305005      -0.63764960       0.36403430      -0.43110025      -0.56406170       0.09282807      -0.08738649       0.02157979      -0.00594515      -0.04314487      -0.17143119      -0.11508957      -0.03566247      -0.12431383      -0.24308052       0.33990683      -0.48813476      -0.53508136      -4.78093883
C        2.54413438       0.22417247       1.27321875      -0.14129987      -0.08870161      -0.31283936       0.09041188      -0.06584272      -0.08718388       0.08730733      -0.06502217      -0.11251601       0.06223265       0.12811827      -0.00612560      -0.07768262      -0.03094299      -0.01763217      -0.43682865      -4.74566111
C        2.11992645       2.89329267      -1.58378530       0.15745038       0.99142420       0.51672417       0.03020689      -0.29442851      -0.16209317      -0.05084460      -0.18629223      -0.30414537      -0.04860030      -0.12340267      -0.14456361      -0.33844499       0.10970944       0.92804068       0.54252227      -4.93547584
C       -2.27142572      -0.12795377       0.56209743       0.43344107       0.48428258       0.25724104      -0.01610360      -0.30609633      -0.02145104       0.19895237      -0.00717242      -0.14980713      -0.16252593       0.04756446      -0.17948937      -0.51661229       0.38445575       0.60431427       0.24071267      -5.13301016
C        1.46861434      -0.88501602       1.23225582      -0.82434380       0.34554946      -0.21924189      -0.01332168      -0.58896697       0.01299934      -0.12822575      -0.03627264      -0.11849042      -0.00783379      -0.23029354       0.10629562      -0.22584481      -0.97339173       0.32052712      -0.21900624      -5.09056885
N        1.26646268       2.12517452      -2.47890997      -0.40066779       1.23932934       1.27420688      -0.05327772       0.40498998       0.15980739       0.06264023       0.18784777       0.41135735      -0.02312628       0.03881730       0.02423180       0.27467559      -0.38167643       1.18280118       1.34180962      -3.78623295
H        0.91082561      -1.72581148      -1.28744674       0.25693777      -0.02644287       0.20913729      -0.12998867      -0.25472169       0.13965194      -0.13670705       0.16336023      -0.39654312       0.26231091      -0.17611352       0.26135380      -0.35470951       0.28224141      -0.01565293       0.24538178      -3.93137831
H       -3.99288583      -0.46769994       1.77513611      -0.98800987      -1.08335316      -0.06897017      -0.19774053      -0.25396699      -0.03607876      -0.03819214      -0.07170600      -0.20962963       0.05856954       0.01202946       0.04398539      -0.11496471      -1.01087679      -1.07727509      -0.04134549      -3.55576459
H        0.14757025       0.52957720       0.24079347       0.11899529      -0.87997961       0.52077234      -0.19207278      -0.17943995       0.01273426       0.02142713       0.01832838      -0.24176137       0.03204464       0.00860242       0.02467234      -0.27260540       0.24445952      -0.96108235       0.53717951      -3.60489751
H       -3.80234432       0.06811219       4.37669945      -0.23502420      -0.90318227       0.18855585      -0.05147994      -0.03063669      -0.00263923       0.00764147       0.03716197       0.04297312      -0.07348270      -0.00033994      -0.04696075       0.02555828      -0.24615831      -0.88915152       0.18092710      -3.92932038
H       -3.59648800       1.73788834       4.50612974       0.28549960       0.24949716      -0.29114029      -0.04196732       0.01206851       0.00344950      -0.01171346      -0.04461187       0.05285950       0.10047463      -0.05268314       0.07193610       0.11859785       0.30017747       0.24480740      -0.29748863      -3.92356066
H       -4.87824583       1.16448998       3.50863266      -0.73835176      -0.17850962      -0.36884966      -0.05252869       0.11505735      -0.02561614      -0.00092291      -0.01991229      -0.01343068       0.00392498       0.02351613       0.00212174      -0.02054612      -0.74914489      -0.17682693      -0.35837578      -4.00398872
H        2.92036438      -3.49242282      -1.91722131       0.19533573      -0.13909130      -0.20893230      -0.05918046       0.05089592      -0.01261630      -0.04896851       0.00366864       0.00052901       0.00680513      -0.04887491       0.05681157      -0.00329582       0.20411127      -0.12705283      -0.20596072      -4.03465994
H        1.19187975      -3.84507418      -2.28626108       0.36692339       0.40671802       0.23060448      -0.05689887      -0.00989708       0.04649138       0.04829296      -0.00067836       0.03532439       0.06658116       0.01808003       0.06722031       0.05395596       0.36964931       0.41602294       0.24951853      -4.00639685
H        1.92117858      -4.44702148      -0.80073363       0.16177106       0.34330934      -0.11702421      -0.04233366      -0.03818808       0.03099324       0.01406814      -0.01523881       0.04875489      -0.02540545       0.00590148      -0.08065810      -0.01382418       0.16073615       0.32630641      -0.12039915      -3.98636399
H       -1.46862125      -2.02138758      -1.58650744       0.48425794       0.10818071      -0.05590077      -0.05534159       0.04328860      -0.04074931      -0.00843551      -0.05843124       0.11381804       0.00621953      -0.01429532       0.01058053       0.03159594       0.45100293       0.14188799      -0.06246997      -3.92497226
H       -2.52450037      -1.32001805      -2.74665976       0.06384695       0.33547172       0.52512926      -0.05344362       0.03739271       0.02483642       0.02094812       0.05227268       0.02676257       0.07001286       0.03641232       0.04970684       0.15902439       0.05430958       0.32897920       0.52941996      -3.93041163
H        3.85808754       1.25641418      -0.05505860       0.35344785       0.08099222      -0.25980589      -0.06556981       0.10002928       0.00765316      -0.03459197       0.00982875       0.03274974      -0.03956979      -0.09337353      -0.05616441       0.01431896       0.36122319       0.06168287      -0.25297275      -3.93872822
H        2.57821226       0.36805588      -0.89260632       0.22189960      -0.29208630      -0.07722869      -0.05642874      -0.06050621       0.01272244      -0.00404611      -0.00338428       0.02784802       0.02936813      -0.03397987       0.02307135       0.10505195       0.20221569      -0.28057784      -0.09252062      -4.02636064
H        0.92124212       2.15882349       0.03851885       0.62853146       0.28024641      -0.11364889      -0.04997961       0.08961692      -0.00560143      -0.05158358       0.02298591       0.00279055      -0.03391094      -0.00145584       0.03318605      -0.05181296       0.62301050       0.22537264      -0.13384517      -3.92373854
H        2.36982679       3.06063294       0.50385213      -0.09121179      -0.05864246       0.17133310      -0.06404806      -0.05477336      -0.05359373       0.01532861      -0.00542162       0.04889344       0.04243217       0.01628287       0.03851345       0.10563734      -0.07338313      -0.03045230       0.14829705      -3.91429917
H       -3.72857952      -0.14113581      -0.96720678      -0.23426627       0.06635193      -0.00588883      -0.06159493       0.09862063      -0.05902367       0.02350532      -0.05031200       0.02668553       0.01714888       0.06853144       0.02441461       0.03540230      -0.20055981       0.06253572      -0.04233411      -3.96006264
H       -3.33967900      -1.78191996      -0.37548524      -0.05842122       0.48309964       0.15654896      -0.05825926       0.00757969       0.05582461      -0.06399643       0.03024243       0.06809735      -0.02369825      -0.01211423       0.00956759       0.07132883      -0.01741316       0.50249559       0.14632668      -3.95948314
H        2.28244257       0.90280205       2.08323526      -0.00333129       0.15002213      -0.07254752      -0.06361578       0.02098791       0.00184609      -0.01251692       0.02303241       0.07303952       0.04940745      -0.04644433       0.03231685       0.06660083      -0.02226643       0.12013009      -0.01366117      -3.93764743
H        3.49287271      -0.22487369       1.53539407      -0.04236433      -0.37063029       0.26531455      -0.05572070       0.07502614      -0.00195130       0.01430343      -0.03182096       0.02766489      -0.04954803       0.03460760      -0.01965498       0.02537897      -0.00995123      -0.35938602       0.29527887      -3.92059636
H        3.14205074       2.88857079      -1.97348571      -0.13503288      -0.03915172       0.24029595      -0.06789488       0.07411262      -0.00346767      -0.04244422      -0.02803880      -0.07171674       0.01481577      -0.00415618       0.01301709       0.01364533      -0.15820436      -0.03522122       0.23203400      -3.92308720
H        1.74386001       3.93424773      -1.58232248       0.29003316      -0.52119499      -0.16951467      -0.06315174      -0.04331284      -0.03730539       0.00452611      -0.00962794       0.15671817      -0.05561342      -0.02862278      -0.04906078       0.02269033       0.27867530      -0.55391331      -0.17406745      -3.85137003
H       -1.88186336       0.82711226       0.25682867      -0.34749797       0.51022208      -0.24965075      -0.02610507      -0.06111674       0.03823776       0.02088196       0.02986388       0.03660297      -0.00536805      -0.00025340       0.01352677      -0.09253573      -0.32436038       0.47808916      -0.26083884      -3.70840056
H        1.32321143      -1.29086375       2.24072409       0.05254269       0.27630469      -0.26237336      -0.04908287       0.03657861      -0.03123066       0.04144277       0.01124193       0.04974136      -0.05045902       0.07218831      -0.11749163       0.16188709       0.02701704       0.29054520      -0.30669298      -3.73920277
H        1.35554695       1.13124228      -2.43158388       0.01134966      -1.74597418      -0.09097525      -0.12189797      -0.29995587      -0.18017673      -0.00128534      -0.12417536      -0.49246122      -0.04039277       0.07268263       0.11610119      -0.23211555       0.02766694      -1.68830246      -0.11833133      -3.53517138
H        1.36407804       2.44662309      -3.38830090       0.10621455       0.39664492      -2.26124048      -0.17957360      -0.20128364      -0.03499581       0.04576857      -0.02274326      -0.21748154       0.07092111       0.00755962       0.03142893      -0.25435590       0.11272567       0.42812469      -2.27166335      -3.41927565
H        0.27754498       2.23450518      -2.20028448      -0.66679776      -0.56483948      -0.12027759      -0.11171445      -0.53304566      -0.05830009      -0.02072557      -0.21815076      -0.35368913       0.09363863       0.12332837       0.03541167      -0.13566550      -0.73526975      -0.56570250      -0.13450863      -3.48850781
42
Properties=species:S:1:pos:R:3:original_dataset_forces:R:3:LES_q:R:1:LES_BEC:R:9:forces:R:3:energies:R:1 original_dataset_energy=-190.6107940673828 energy=-190.50859652300284 stress="inf inf inf inf inf inf inf inf -inf" pbc="F F F"
O       -0.40238807      -0.98270893      -4.27275085      -0.66952515       0.63376987      -0.53305542       0.28266165       0.84523565      -0.42385439      -0.69588525      -0.21997573       0.57990506       0.49145796       0.00584776       0.15092236       0.96584693      -0.59966324       0.58384790      -0.58775162      -4.62224457
O        3.44972467       0.12210971       2.24064875      -0.43589473       0.30259904       1.56178749       0.38960189       1.13989186      -0.39818427       0.53603696      -0.52071963       0.78578097      -0.46217070       0.43141415      -0.14988866       1.12737600      -0.52759923       0.34815551       1.47616370      -4.36484859
O       -1.24737132      -0.45940042       2.20149064       1.67539668       3.52351093       0.86375302       0.29598111       0.48280588       0.27677444      -0.07853438       0.08755564       1.21417786       0.55381118      -0.17334173       0.24618918       0.86546919       1.71363834       3.63481110       0.87152163      -4.58080519
O       -1.98432600       1.61429644      -0.44373760       1.25678253      -1.78344142      -0.24898647       0.29592666       1.20163996      -0.31506633       0.21735987      -0.43978124       0.66540260       0.12641704       0.03221745       0.19734426       0.65552933       1.24901443      -1.77979311      -0.20030371      -4.65144896
O        2.77295280       0.93387985       0.36099786      -0.64625961       0.93139708      -1.12440491       0.34053859       1.08603244      -0.03597740       0.01927651      -0.09245193       0.49421182      -0.00402506       0.04719009      -0.24401102       1.38573115      -0.68937313       0.96943757      -1.18497369      -4.47597816
C       -1.45339668      -0.40793505      -3.94752240       0.30256045      -2.69965339      -0.54850781      -0.07916805      -1.04042397       0.48044340       0.50579864       0.30106543      -0.46239060      -0.87177654      -0.00435545      -0.55724638      -1.69703809       0.23081789      -2.63012035      -0.48905294      -5.70189320
C        2.68352556       0.87111509       1.61157703      -0.10636566      -1.55097651      -1.06526315      -0.05609851      -1.27841844       0.66099256      -0.27982086       1.03866929      -0.67280495       0.47572656      -0.15965558       0.31305521      -1.95146105       0.08946644      -1.69612000      -0.93881241      -5.59387042
C       -0.85064530       0.72484326       2.50374818      -2.30458045      -3.98405242      -0.23638383      -0.09129059      -0.46856171      -0.20705531       0.46140264      -0.12742742      -1.40269534      -0.81359156       0.46816470      -0.64194225      -1.43207609      -2.30282295      -4.16335459      -0.32656130      -5.52729623
C       -0.90640604       0.98310459      -0.53833085      -2.37289238       1.65934145      -0.92180437      -0.06955975      -1.62174074       0.41720443      -0.56643406       0.38145976      -0.53291595      -0.36354715      -0.37443982      -0.38624321      -0.95861767      -2.42854936       1.65951934      -1.07661451      -5.60773714
C        1.65556788      -1.91456521       0.31616002       1.08586502       0.44541901      -2.39539647       0.01663354      -0.27734006       0.08365338       0.00783624      -0.06732918      -0.01227098      -0.04712611       0.07894552       0.05461183      -0.18943435       0.90388841       0.51748493      -2.40726974      -5.40812015
C        1.04782343      -1.75035560      -0.90376770      -0.82469845       0.36813819       1.88637638      -0.03384895      -0.43418683       0.10594780       0.11809302       0.03156757       0.03435232      -0.02057915      -0.15204749       0.07534010      -0.22406479      -0.69842306       0.45959841       1.95085333      -5.65505244
C        3.23955870      -1.82994175      -1.25868583      -1.31246459      -0.59291279       1.05552983      -0.07669158      -0.19512041      -0.02054642      -0.26294655       0.05944396      -0.15364144      -0.00294792      -0.07266412      -0.09121553      -0.46540984      -1.17334876      -0.57669503       1.11622213      -5.76421956
N        3.04110551      -1.95007861       0.07255900      -1.50157177       0.06644829      -1.81461823      -0.04028137       0.09944599       0.06824115       0.15229477      -0.12372516       0.11618419       0.00153249       0.07943164       0.00052522       0.41960561      -1.47593390       0.15861449      -1.82288987      -4.96439033
N       -1.24163401       1.35212493       3.64730549       0.39160278       0.20988242      -0.98281449       0.07544229       0.36638773      -0.09255272      -0.48275311       0.06797199       0.53359900       0.15192210      -0.34118544       0.39525134       1.00642978       0.35835257       0.20989496      -0.91276098      -4.83453091
N        0.12836096       1.18840265       0.25454265      -0.48489758      -0.53145432       1.10252714       0.07560724       0.96348506      -0.09094880       0.39046417       0.06046787       0.24068747       0.32014261       0.38982378       0.17915900       0.86444575      -0.33585550      -0.62927557       1.05241749      -4.70777646
N       -1.59957647       0.04483306      -2.72719312       0.45228490       1.45720589       2.11546373       0.06983298       0.35921520      -0.15225075      -0.05540472      -0.09564723       0.34159078       0.43134817      -0.00233771       0.33535930       1.15346500       0.48764114       1.47309170       2.19065131      -4.82816172
N        1.99401677      -1.74852514      -1.83573031       3.86719131      -0.00146532      -0.81145710      -0.05859761       0.23943838      -0.00376389       0.18929879      -0.06630367      -0.04216214      -0.02166580      -0.01637356       0.09257910       0.44478723       3.82669431      -0.08669997      -0.92266651      -4.95316254
C       -2.79276037      -0.33434871      -4.68144226       0.00144485      -0.74195760       2.44994760       0.09172045       0.16105470      -0.05733826       0.16508874      -0.00458165      -0.10664697       0.11606639       0.13260752       0.02236990       0.07268251      -0.03145360      -0.77582945       2.38496840      -4.37611630
C       -2.08926821       0.84325814       4.70439720       1.15738654      -0.08990116       0.08920757       0.08184930      -0.26545121      -0.05254920       0.19497300      -0.19196974      -0.12814438       0.34717023       0.12236670       0.06517088      -0.30562738       1.10202477      -0.07638133       0.00213251      -4.89487022
C        1.48201549       1.64257503       2.26126671       0.49417302       0.02256309       0.36764503       0.07550232       0.16511869       0.00635847       0.00668876      -0.10676554       0.03370503       0.14067396      -0.08676091       0.06616762       0.00847864       0.38439105       0.05894223       0.39929323      -4.56001811
C       -0.38292465      -1.45629704      -1.24630833       2.05453253       0.68349713       0.50576669       0.06418243       0.01419660      -0.11605117      -0.00624082      -0.00722937      -0.10522444       0.08313825       0.04316585      -0.01504372      -0.14119741       2.05614183       0.61596003       0.62257058      -4.77722005
C        0.04810421       1.58163536       1.65214658       0.61123216       0.56713885      -0.89011693      -0.01826859      -0.24778573      -0.05248963      -0.18370739       0.01592993      -0.17926649      -0.19425621      -0.10112977      -0.16178862      -0.59717849       0.64267117       0.59415969      -0.79789004      -5.16001061
C       -0.59058994       0.02039754      -1.71616817       0.54290062      -0.41564554       1.00088644      -0.00363960      -0.26745397      -0.01568178      -0.20402982      -0.04980183      -0.24750344      -0.00184446      -0.12805066       0.11659120      -0.24036002       0.48889176      -0.41645357       0.96428583      -5.00122864
H        1.09569848      -1.93945718       1.18738365      -0.04295916       0.07808609       1.88068211      -0.07755646      -0.00920792      -0.05380043       0.00707611       0.00815496      -0.12185110      -0.02516566       0.05506615      -0.09549401      -0.03614081      -0.02992769      -0.02483487       1.87521605      -4.14450158
H        4.22267151      -1.97131515      -1.70846057      -0.69509345       0.44479510      -0.11263642      -0.08137812       0.02729110      -0.02684496      -0.01624780      -0.00983243      -0.07998448      -0.00295665      -0.06737284       0.03826279      -0.07056976      -0.70915495       0.40621069      -0.11527321      -4.10977074
H        3.80481648      -1.80763710       0.71011764      -0.14930728       0.15206254       0.74070722      -0.18349752      -0.14465479      -0.06341050      -0.06115207      -0.09973916      -0.24165991      -0.08583196      -0.20304091       0.00936637      -0.29769711      -0.17800045       0.14431851       0.72145827      -3.74971701
H       -1.13493633       2.35846758       3.62602234       0.14536186      -0.35056472       0.18535922      -0.19954325      -0.17166865      -0.02191342      -0.04282170      -0.00333707      -0.27673356      -0.02287414      -0.02385658      -0.00353593      -0.14083140       0.20833025      -0.34481136       0.19520638      -3.54417533
H        1.02205014       0.88236177      -0.06471318       1.25630367      -0.21114877       0.22571875      -0.14541142      -0.74154313      -0.02693226      -0.05591114       0.04031467      -0.19884864       0.01727686      -0.05683758      -0.00788060      -0.07036194       1.13795820      -0.26659000       0.19672477      -3.71237244
H       -2.41745329       0.51869398      -2.43311429      -0.85505414       0.47602358       0.14853959      -0.19140552      -0.20160275       0.06272868       0.11115271       0.01298614      -0.23432342      -0.07865011       0.05546433      -0.02419114      -0.19462792      -0.86838145       0.46807950       0.11850175      -3.55317643
H        1.85912478      -1.66942811      -2.82994342      -0.26852295       0.11766567      -0.13767271      -0.19179633      -0.16584824      -0.00038097      -0.03869074       0.00638785      -0.19529843       0.00089135       0.05395322      -0.07884048      -0.41525872      -0.28398483       0.10885256      -0.09122020      -3.73243575
H       -2.81853437      -0.81898314      -5.59215975       0.28344768      -0.87431389      -1.87189269      -0.05512252      -0.01096318       0.01487441       0.02630873      -0.00535526       0.00217707       0.01088220       0.02786115       0.04323504       0.08322374       0.31846392      -0.87808661      -1.86486483      -4.05081548
H       -3.62269402      -0.80330056      -4.02598429       1.39401209       1.17111742      -0.96487141      -0.04188807       0.09982801       0.04232340       0.01088206       0.03789470       0.00427979      -0.01357092      -0.07364030      -0.02432955      -0.04673605       1.41165551       1.20409681      -0.93480946      -3.95969810
H       -2.84888101       0.71290553      -4.79691696      -1.13910365       1.19959199      -0.38913685      -0.05478858      -0.01421060       0.00367336       0.03552917      -0.04282800       0.04890756      -0.08450026       0.00657383      -0.01007011      -0.00463974      -1.16197249       1.19721584      -0.37739428      -3.82902269
H       -2.98488498       1.38441694       4.69082689      -1.32572341       1.02619874       0.29643074      -0.05887587       0.08020938      -0.01249398      -0.07307653      -0.03252097      -0.00045658       0.01057654      -0.03111849      -0.01662529       0.01971919      -1.32449130       1.04931781       0.32069913      -3.90513223
H       -2.40110755      -0.16897124       4.55012846       0.46002114      -0.64455986      -0.20122522      -0.04535086       0.02141162       0.02982871      -0.03839165       0.12529934       0.04309118      -0.19990503       0.01222882       0.00022043      -0.03584307       0.49781905      -0.65027446      -0.19247368      -3.98190496
H       -1.55754840       0.98342419       5.65438652      -0.39542592      -0.28691080      -0.14849873      -0.05814037      -0.00237640       0.01698407       0.02864895       0.02223421      -0.02185911      -0.01688849      -0.02023309      -0.01037868       0.11845676      -0.40103877      -0.30157633      -0.15012965      -3.96091097
H        1.75986183       2.67632818       2.27463365       0.34812793       0.64519233      -0.25039902      -0.05674800       0.00022490       0.01653830      -0.01510612       0.06515386       0.11632958       0.02930757       0.04481697       0.04868635       0.02753260       0.30464736       0.69472478      -0.26193341      -3.84473136
H        1.41874325       1.39447212       3.30457163      -0.01095738      -0.38532838       0.38951579      -0.05176184       0.01134363      -0.01064290      -0.00803723      -0.00631170       0.00202566       0.01423029       0.03242318       0.03561767       0.23053149       0.05231413      -0.41119271       0.39375932      -3.92327777
H       -0.87766612      -1.69003177      -0.33026591      -1.25927842      -0.33165991       0.02510666      -0.06304966      -0.01716462       0.03665221       0.00029801       0.01637434       0.03716234      -0.02724096      -0.04783516      -0.10547666      -0.01296426      -1.23459697      -0.30795567      -0.00191840      -3.97336329
H       -0.48400599      -2.04628372      -2.12125039      -1.33123481      -0.82571268      -0.48553410      -0.04253899       0.03978830       0.00350266       0.02451774       0.00861347       0.07710465       0.06883914       0.06280348       0.14135838       0.02252013      -1.32003311      -0.65950357      -0.43913971      -3.75429936
H       -0.42149687       2.57590055       1.71393633       0.37327316      -0.13295235      -0.15649875      -0.05277042       0.06717207      -0.08391602      -0.03127817      -0.06324460       0.06188132       0.01078521      -0.01823289       0.05073905       0.10587858       0.34017210      -0.09948309      -0.18844406      -3.72135505
H        0.38477543       0.34001619      -2.06439877      -0.01996955       0.25532645      -0.60089731      -0.04637442       0.10450619       0.00792434      -0.01255545      -0.01066646      -0.01587392      -0.04108126      -0.02785621      -0.05392077      -0.04957368      -0.03038989       0.21869727      -0.56749758      -3.76260497
42
Properties=species:S:1:pos:R:3:original_dataset_forces:R:3:LES_q:R:1:LES_BEC:R:9:forces:R:3:energies:R:1 original_dataset_energy=-192.4518280029297 energy=-192.40552204417227 stress="inf inf -inf inf -inf inf -inf inf inf" pbc="F F F"
O       -2.49949455      -0.11934322      -1.82304072       0.29556677      -0.05294375      -0.75049263       0.26201090       0.68454007       0.08698741      -0.22246134      -0.15739419       0.75239583      -0.44001651      -0.04577949      -0.53166233       1.03194233       0.28474655      -0.07660991      -0.75034405      -4.68861483
O       -0.43082279      -1.95561433       1.97143960      -0.18976955      -0.80611080      -0.71120077       0.36854818       1.16262459      -0.06450534      -0.14426574      -0.37518166       0.75248185       0.34531631      -0.30443881       0.24067648       0.95884864      -0.18139676      -0.75656239      -0.77694016      -4.52128338
O        1.41986763       2.99259520      -0.97046131       0.72127473       1.36806214       0.48783988       0.25677007       0.71326135      -0.00116429       0.43326689       0.35258283       1.07946652       0.25110661       0.33889291       0.04994547       0.72378219       0.69318296       1.33751937       0.47700862      -4.70162896
O        0.88078594      -1.58677781      -2.55988073      -0.71894926      -0.36568433       1.42366505       0.29111549       0.58557169      -0.03755989      -0.40837134       0.10808767       0.67521611       0.15511265      -0.28402342       0.52074327       1.29013830      -0.69486475      -0.39605394       1.38016408      -4.64207386
O        1.61185932      -2.60530806       1.46561038      -0.28402102      -0.46024293      -0.56296450       0.28840289       1.45336281      -0.15758899       0.09259695       0.05658712       0.85356357       0.18268930       0.23724941       0.24005200       0.57801488      -0.14973730      -0.38429566      -0.56936922      -4.70373441
C       -2.71298456      -0.74114633      -0.79334861       0.35729501       0.96580887      -0.75052828      -0.05110981      -0.86865363       0.56522670       0.14557828       0.82480429      -0.99093178       0.68337264      -0.06979512       0.70277381      -1.15517028       0.36540343       1.01080038      -0.71925798      -5.94457264
C        0.36254689      -2.64821553       1.25908327       0.50296402       1.71099842       0.87944090      -0.07860097      -1.97612320       0.28345545       0.00616687       0.28969647      -0.69812531      -0.68556203       0.07106899      -0.64890137      -1.01549820       0.39097021       1.72165065       0.92573866      -5.42851568
C        0.96571112       1.96061063      -1.40987897      -0.08448549      -0.30684698       0.82603025      -0.08494388      -0.93071051      -0.02627491      -0.80057055      -0.32276664      -1.26582403      -0.22662903      -0.62779878      -0.11109700      -0.68440067       0.00725340      -0.22883744       0.89726315      -5.67179212
C        0.32910940      -1.44896150      -1.45577455       0.12879784      -0.05756653      -2.95635533      -0.09201546      -0.54990544      -0.31642716       0.32141717      -0.33755242      -1.05507640      -0.58896690       0.31971375      -0.75187928      -1.54758110       0.16751754       0.05833151      -2.90976363      -5.52929149
C        1.77577639       2.07291818       2.04351282       0.70042932      -0.77211684      -0.76726842       0.02512111      -0.05623049       0.00371247       0.04233795      -0.01421925      -0.08463932       0.20355323       0.14865272       0.06178709      -0.11170194       0.76649085      -0.78629151      -0.65560389      -5.32735911
C        2.23260832       0.89911282       1.46718442      -0.38996029       1.74414551      -0.80436635      -0.03351478      -0.03207539       0.06644222       0.24939127       0.00424021      -0.34915258      -0.16112427       0.06489252       0.00280264      -0.41135664      -0.43601384       1.64099529      -0.90782032      -5.60881247
C        1.27405202       0.39059472       3.36733603      -0.51620632      -0.90911824       1.15626657      -0.05849985      -0.16920038       0.09501264       0.13354823       0.05147663      -0.55653326      -0.31730275       0.07590280      -0.18268947      -0.23488411      -0.52932718      -0.94279951       1.14142387      -5.94137060
N        1.21635652       1.71245098       3.27255392       0.27440032       0.78756112      -1.55801451      -0.04584825       0.00237143      -0.11709400      -0.18484870      -0.09195292       0.46473282       0.20831959      -0.13423267       0.10049469       0.15211945       0.30826194       0.83136023      -1.57748879      -4.99713405
N       -0.10237874       1.92592049      -2.19750333      -0.07648287      -0.60597724      -0.13910721       0.10121130       0.75906603      -0.02571430       0.47035156      -0.06001077       0.45456978      -0.03426227       0.41710425       0.05102457       0.42627705      -0.10079068      -0.61330134      -0.24126213      -4.87580783
N        0.64442122      -0.41162851      -0.67070705       0.12515780       1.07241380       1.00711501       0.08904510       0.48712881       0.35982374       0.13096755       0.23954911       0.95946185       0.40095227       0.00919474       0.26303546       0.69509699       0.07158292       1.02499114       1.04160501      -4.78477650
N       -1.94184744      -1.71506500      -0.32965618       1.12873030      -1.45649850      -0.04398115       0.08997398       0.80990270      -0.47832734       0.15849960      -0.62912479       0.70688902      -0.32120591       0.07427597      -0.11969426       0.57296522       1.12005744      -1.52335315      -0.04892626      -4.61773803
N        1.91849589      -0.10676903       2.32178354      -0.66473007       1.33316600       0.75985479      -0.05956107       0.08782733      -0.08843274      -0.16086748       0.11501547       0.58557790       0.33115677      -0.07801684       0.21227184       0.41120844      -0.64786811       1.40589892       0.83832076      -5.03635321
C       -3.84284425      -0.35934603       0.08411634      -0.76925087       0.26275259       0.94249767       0.08776493      -0.05149563      -0.09028384      -0.12356777      -0.09007199      -0.08831883       0.00227789      -0.13687311       0.00961422       0.03427171      -0.76451316       0.26095394       0.96072931      -4.51027042
C       -0.90977144       3.08758545      -2.46951699       0.37145135       0.15121484       0.21382658       0.07951295      -0.28408975       0.21821419      -0.12928297       0.14466485      -0.29987183       0.06036851      -0.05746812       0.10089424      -0.19284999       0.34507578       0.15485975       0.23662009      -4.90119686
C        2.75467515       0.73722231       0.05527157       0.06980477      -0.33264521      -0.58744144       0.05418464      -0.15941671      -0.07261875      -0.06278939      -0.03332790      -0.05252186      -0.03953756      -0.05574642      -0.01476167      -0.13584788       0.02097941      -0.31762112      -0.50954897      -4.73998382
C       -0.18495540      -3.36717701       0.01171023      -0.37474775      -0.64085191       1.23911297       0.07140240      -0.07450829       0.02209667       0.02386069       0.09013390      -0.00113680       0.13836932       0.00745581       0.08106281       0.06614099      -0.38466491      -0.65322979       1.21807528      -4.58945401
C        1.62660742       0.62947094      -1.03788853       0.15082286      -0.89261544      -0.26920465      -0.01078456      -0.51428075      -0.33004693       0.06690692      -0.28715600      -0.26114512       0.06317042       0.02165313       0.05687326      -0.14345748       0.20721041      -0.93234869      -0.31491820      -4.96223644
C       -0.79329371      -2.40595651      -0.99754357       0.05225874       1.73949885       1.89826918      -0.02523495      -0.40847854       0.28197955       0.07021060       0.23704700      -0.48409281      -0.04094398       0.09859950       0.01470519      -0.18400139       0.03615078       1.80401893       1.87509857      -5.11042884
H        1.79129171       3.04307485       1.54762912      -0.13659772      -0.25519067       0.69998527      -0.06898175      -0.07903536      -0.02503949      -0.03131776       0.04136396       0.04174182       0.02223599      -0.00423831       0.00024019      -0.08265238      -0.14915476      -0.24597653       0.67266088      -4.20510153
H        0.78547215      -0.18480712       4.16006088       0.48750895       0.20071957      -0.57959539      -0.07779942      -0.04035129       0.00239205       0.04366304       0.01837780      -0.08188513       0.02800810      -0.06521088      -0.04950615      -0.15112041       0.49611105       0.18656160      -0.58147669      -4.09465082
H        0.72469008       2.37561584       3.85207200       0.09209055      -0.45709550       0.20575385      -0.19221032      -0.21695744       0.05284703       0.03874909      -0.00917210      -0.30040288      -0.19390284       0.02278671      -0.07156773      -0.24458169       0.05848599      -0.45209459       0.18161228      -3.70120094
H       -0.50139469       1.03009737      -2.34372807      -0.54891074      -0.69305551      -0.28440195      -0.16501483      -0.28408569      -0.05318588      -0.08533642      -0.09549655      -0.25293314      -0.00513988       0.00757620       0.04342963      -0.26003432      -0.56067903      -0.64449891      -0.28767569      -3.68271563
H        0.14822429      -0.32313353       0.21352720       0.16029811      -0.00613809      -0.37044239      -0.17803465      -0.19051918      -0.00624731       0.04027552       0.01865415      -0.18838157      -0.02556899       0.03013091      -0.03871666      -0.27905426       0.21909115      -0.10846017      -0.33686140      -3.72349106
H       -2.08289838      -1.96656418       0.63217211       0.25454015      -0.14156136       0.24221547      -0.18051532      -0.20888601      -0.18172255      -0.10221261      -0.07499976      -0.08898149       0.03964121      -0.06936718       0.11913587      -0.32009321       0.23249329      -0.16356731       0.25483115      -3.54171230
H        1.85150075      -1.07705927       2.03415155       0.13590051      -2.15278935      -0.15710646      -0.10122100      -0.20708172      -0.04789098      -0.11491710       0.00455655      -0.77902521      -0.12419083      -0.01509696      -0.20475112      -0.15862961       0.08804534      -2.20435719      -0.22115705      -3.98399852
H       -3.49120378      -0.22451907       1.10827005      -0.00397276      -0.20299730       0.06548285      -0.04723566      -0.03268761       0.00371432       0.01760923       0.00094370      -0.00982673       0.01022412       0.08365576       0.00596547       0.06154952      -0.00649618      -0.17493526       0.05583758      -3.93367352
H       -4.21839619       0.61796403      -0.22831234      -0.20520258      -0.46752095      -0.14899769      -0.04739728       0.06875431      -0.02880326       0.00630693      -0.09926129       0.05575628      -0.01921875      -0.00894183      -0.01393770      -0.01301474      -0.21153005      -0.47318694      -0.13882313      -3.96856012
H       -4.61238289      -1.14854729       0.10104060       0.17088607       0.51993477      -0.09380604      -0.05219932       0.03935119       0.05395297       0.00096559       0.06458615       0.03692730       0.00649270       0.02748861      -0.00237393      -0.02351015       0.17434764       0.52073411      -0.09856974      -3.99568445
H       -1.13568997       3.59360981      -1.54557526      -0.13446257       0.24328512       0.39021733      -0.04585168      -0.02543502      -0.04862500       0.02453714      -0.01236265       0.00501386       0.04835555      -0.04084952       0.06586869       0.01580585      -0.14090925       0.24128607       0.37567420      -3.94332615
H       -0.34447330       3.78686571      -3.07490206      -0.17621468       0.08173458      -0.28809044      -0.05266801      -0.00686147       0.03728207      -0.04996059      -0.00201407       0.07145344      -0.03231273      -0.00388817      -0.09062011       0.03475315      -0.17217744       0.07968568      -0.29147120      -3.97995759
H       -1.83953774       2.77983499      -2.92213655      -0.01191965      -0.05154882      -0.28778154      -0.05731756       0.09141340      -0.06632220       0.08157796      -0.02693902      -0.01938002      -0.00977835       0.05068392      -0.00384586       0.00502757      -0.03815764      -0.03529550      -0.29982357      -4.00923234
H        3.41621256       1.58732104      -0.15294802      -0.43410516      -0.19048388      -0.09468196      -0.05437063       0.13750481       0.11051916       0.00605752       0.11554865       0.04945056       0.02053405      -0.07901188      -0.02851880       0.02080501      -0.42906743      -0.20072885      -0.11866584      -3.99394502
H        3.37116146      -0.17137218      -0.10489807      -0.47616094       0.44641131       0.62717098      -0.05781091       0.09575188      -0.04464486      -0.01775092      -0.08089959       0.02966537       0.01025226      -0.02597623       0.01080031       0.01090110      -0.44149660       0.44487617       0.66146145      -3.98047084
H        0.60176444      -3.95068908      -0.45086271       0.01771687      -0.00941729      -0.06235536      -0.05650313       0.04784984      -0.10106787      -0.03412942      -0.07218381       0.18271316       0.04872715      -0.02582062      -0.02448353       0.02747521       0.03458155      -0.01664017      -0.02699926      -4.00757810
H       -0.99199569      -4.03725624       0.36043626       0.40283272       0.11984087      -0.24980868      -0.04966335       0.05233035       0.08130091      -0.01194652       0.09299986       0.17279802      -0.02445203      -0.00742047      -0.03174051       0.02346767       0.38334708       0.09474580      -0.25801303      -3.89979499
H        2.09770298       0.31109929      -1.99389279      -0.23481409      -0.17429395       0.79142630      -0.04040014       0.01754529      -0.00470706      -0.00202175      -0.00858579      -0.08226657      -0.02306460       0.01795933      -0.04232387       0.10320156      -0.26560238      -0.15836697       0.78623363      -3.75827497
H       -1.16452873      -2.97870898      -1.79650760      -0.16994472      -0.28768125      -1.33764291      -0.07148105       0.07091157       0.08933538       0.08177583       0.00975680       0.06057752       0.05294356       0.01505690       0.00887418       0.10564754      -0.16693929      -0.32985671      -1.33957837      -3.84771195
42
Properties=species:S:1:pos:R:3:original_dataset_forces:R:3:LES_q:R:1:LES_BEC:R:9:forces:R:3:energies:R:1 original_dataset_energy=-190.45492553710938 energy=-190.450443013915 stress="inf inf -inf inf inf inf -inf inf inf" pbc="F F F"
O       -4.14674759       2.28832579      -0.52272350      -0.04739108       0.08488543      -0.08602616       0.27796987       0.69207528       0.17612035      -0.04408854      -0.42386290       1.41033461      -0.15528945       0.03398222      -0.17255711       0.31392685      -0.08200439       0.14299908      -0.08165662      -4.73518368
O        0.58493203      -0.96187705      -2.30442095      -0.82298559      -0.83135122      -0.62739950       0.36641195       1.09717543      -0.53457512      -0.31898841      -0.17446197       1.19556089       0.33762849      -0.02742515       0.25482056       0.72693750      -0.88913250      -0.96043889      -0.61750758      -4.48698084
O        2.24391627      -1.78534555       2.70078683      -1.47120106       1.24667680       0.32949120       0.29442975       0.72092336      -0.16601081       0.54976143      -0.25878352       0.68703074      -0.13250186       0.32093856       0.09543150       1.04557343      -1.45113758       1.24483692       0.41354103      -4.59041334
O       -1.81507516      -1.08986604       1.51859307       0.42380777       1.23579085      -0.69531995       0.29103035       0.83131744       0.18551628       0.01319345       0.44329624       0.85431622      -0.38009410      -0.25227553      -0.43320605       0.75304933       0.41753700       1.13571587      -0.66950100      -4.59981107
O        0.08418831       1.05248892      -1.65628207      -0.02812338       1.08047390      -0.51354653       0.28218043       0.69431173       0.16547277       0.09979741      -0.09806234       1.23977915       0.04962992      -0.03063212       0.18109528       0.72184341       0.03484205       0.94108866      -0.53944315      -4.58682424
C       -4.52322626       1.14276707      -0.34492230      -2.00220013       1.41444540      -0.04893912      -0.05819987      -1.60779417       0.24471907       0.00738416       0.69615828      -1.90903059       0.23266582       0.03386434       0.21585833      -0.09913884      -1.99624521       1.27553625      -0.06299808      -5.81875148
C       -0.28023186      -0.11505720      -2.02151394       2.16797233       0.65705514       1.78645241      -0.08131400      -1.42868413       0.19178437       0.37654927       0.24750719      -1.74687623      -0.44756442       0.24387512      -0.47774180      -0.31061051       2.36072578       1.05202025       1.75196076      -5.46172681
C        1.42915368      -1.39940631       1.84718633       2.76417971      -1.09893680      -0.70998609      -0.11285972      -0.61642811       0.34197090      -0.53446301       0.35106848      -0.85604024      -0.30810921      -0.48072406      -0.35565528      -1.48026825       2.73397763      -1.03701564      -0.82118934      -5.41337950
C       -1.42965961      -0.17199013       0.77361262      -1.45340586      -2.53883910       1.32645667      -0.07558679      -1.47854101      -0.52016851      -0.12462246      -0.76816195      -0.88501285       0.60090165      -0.01475068       0.59170023      -0.86159126      -1.46123375      -2.41053768       1.39362757      -5.65089436
C        4.07798529       1.56882191       0.35085368       1.12825429      -0.44284052      -0.86996317       0.01301293      -0.08025414      -0.04890061      -0.04493837      -0.00264303       0.00049883      -0.02393568       0.08589375      -0.00351949      -0.21747566       1.18310148      -0.48231433      -0.99164113      -5.50884444
C        2.88759756       0.96656966       0.47156203      -1.11083663       0.97828513       2.80679512      -0.04766317      -0.39764554      -0.14644063       0.09089306      -0.26747062      -0.19228205      -0.00157449       0.08960648      -0.01796454      -0.42980618      -1.34507570       0.93610966       2.80482640      -5.47290309
C        3.34876537       0.93015587      -1.68083370       1.44760954       1.31999254       0.39943215      -0.06402498      -0.71504315      -0.20993293       0.11781831      -0.39858774      -0.21040349       0.12654900       0.17271949       0.05891495      -0.19492703       1.73069174       1.50596799       0.31466763      -5.87290320
N        4.41368437       1.52845287      -1.02245986      -0.52483547      -0.83525473       0.22906835      -0.02100271       0.60985240       0.21931779      -0.06805679       0.43838726       0.14194949      -0.06738144      -0.10430572      -0.00961855       0.13222177      -0.55176187      -1.07086492       0.12366429      -4.71050566
N        1.38074374      -2.14144135       0.71150517      -0.70562559       0.07491950      -0.74442858       0.13290459       0.25391189      -0.19161967       0.04403971      -0.17408755       0.70177795       0.35130867       0.10928138       0.34075476       0.76187065      -0.66917850      -0.01121440      -0.63822905      -4.63992751
N       -0.20600086       0.36737186       0.86307013       0.72031730      -2.12714577       2.63788390       0.07640813       1.26316412       0.29420634       0.16164331       0.24960228       0.52475571      -0.22382300       0.28305839      -0.15433545       0.59614496       0.80285792      -2.14023561       2.76839725      -4.77541596
N       -3.73371935       0.10013604      -0.28973001       2.24813461      -3.54756951       1.79467070       0.07241499       1.18746467      -0.47462184      -0.01840384      -0.57434122       0.87422740      -0.12255937       0.00783179      -0.08445317       0.23444792       2.20523029      -3.56322610       1.86797602      -4.70307498
N        2.45608282       0.63371980      -0.78058600      -0.20421374      -0.10048196       1.20407939      -0.05486552       1.07558502       0.25010298      -0.20635526       0.19821395       0.09489110      -0.02612469      -0.30117352      -0.04860547       0.35479835      -0.50964636       0.09243517       1.45511474      -4.98436743
C       -6.02851486       0.85054493      -0.27944502       0.14206921      -0.47134715       1.34618950       0.09187707       0.74353857      -0.07460575       0.03568025       0.41742242      -0.11578792      -0.00333519      -0.00715264      -0.02326405      -0.13197380       0.20419795      -0.30523798       1.30611551      -4.38741764
C        2.23958921      -3.33820534       0.47542357       1.39210176       3.29672003       0.56341511       0.07463150      -0.03582419      -0.03916732       0.10206113       0.26472018      -0.46780049       0.00376253       0.24603638      -0.25432907      -0.07912818       1.38446267       3.29738704       0.56456236      -4.80829259
C        1.98795295       1.07004178       1.81262040       1.55542934      -0.88210845      -1.52812648       0.06685939      -0.14704980      -0.03073291      -0.03295284      -0.09000418      -0.12076426      -0.01634856       0.03708209       0.01544910      -0.04493330       1.49139054      -0.86175069      -1.50127123      -4.48655283
C       -1.69844508      -0.37311834      -1.72653055      -2.69769311      -1.50446057      -0.68384385       0.06516278       0.29157355       0.04082127      -0.03941015      -0.02779377      -0.08318670      -0.02347044      -0.08989545      -0.04243634      -0.08726929      -2.75430502      -1.46252018      -0.70887010      -4.50821356
C        0.83414286       0.05068946       1.86795449      -1.03605902      -0.20339829       0.36375794      -0.02509617      -0.52416994      -0.02781215      -0.25549079      -0.07144391      -0.20323323      -0.02732480      -0.21817407       0.02497237      -0.36092742      -1.11685986      -0.33169274       0.07171311      -5.08641624
C       -2.28308654       0.29838794      -0.38812149       0.82883334       0.73079818      -1.94069469      -0.01850571      -0.67027785       0.01049100       0.07992691       0.02978081      -0.20778015      -0.10676390      -0.09330771      -0.11813521      -0.27538537       0.88087466       0.72226242      -1.98533872      -4.95868256
H        4.69114065       1.97628140       1.14129436       0.16039394      -0.06135143      -0.44991142      -0.07728773       0.01098281       0.05000674       0.05420892       0.02895655      -0.05843478       0.02290444      -0.06025211      -0.01343039      -0.02608245       0.07163441      -0.04209383      -0.45880432      -4.13779299
H        3.18187451       0.94139576      -2.74762368       0.15640798      -0.40573272       0.18968590      -0.08053987      -0.08624501       0.00389159       0.00194248      -0.01113343      -0.08873496       0.00092939       0.18224482       0.05301233      -0.09403291       0.16942461      -0.36939330       0.21746227      -4.11741663
H        5.38094711       1.60554552      -1.36688018      -1.14599264       0.14118080       0.05666105      -0.19138502      -0.45339699      -0.06569058       0.07529638      -0.10593427      -0.22643691       0.02443837      -0.00587949      -0.00803244      -0.17986383      -1.19937490       0.17197645       0.04267947      -3.70842203
H        0.84066373      -1.81987953      -0.06707066      -0.31632003       0.06936466      -0.29543102      -0.17165212      -0.20633039       0.04339042      -0.02340392       0.06720962      -0.26682357       0.04529731      -0.04571142       0.05438780      -0.33030012      -0.31123188       0.02034384      -0.22776612      -3.79834386
H       -0.03393960       1.07640278       0.26292402       0.62203693       2.56274223      -2.30408216      -0.15396237      -0.13581447       0.02386495       0.11697401      -0.00153628      -0.21704932       0.01633037       0.11552985       0.07209672      -0.43401397       0.61635372       2.50216477      -2.30253055      -3.58352651
H       -4.08046150      -0.71024865       0.29435021       0.84292114       1.24690890      -1.29909694      -0.20207931      -0.18699598      -0.02471206       0.02145891       0.00600892      -0.25326242       0.04802392       0.02958080       0.04207959      -0.24887837       0.85981145       1.24649704      -1.28450498      -3.55781291
H        1.43339801       0.52905917      -0.92461950      -0.38681871      -0.06266613      -1.53550482      -0.10210566      -0.58368311       0.05005088      -0.08660541       0.13245236      -0.22252761       0.02452120      -0.17511111       0.00465916      -0.27820825      -0.26290259      -0.08863058      -1.55449120      -3.82639450
H       -6.41593552      -0.21111077      -0.38529253       0.84299964       1.31977880       0.12625502      -0.04590769      -0.05677609       0.06227368       0.00547397      -0.07698717       0.10793787       0.00786134      -0.03349852       0.01026210      -0.01414886       0.85268394       1.29363852       0.11483808      -4.10432985
H       -6.39882135       1.31114244       0.66910279       0.12228564      -0.45235434      -0.81276852      -0.04755448       0.07120910      -0.02040263      -0.04852306      -0.09076056       0.01022770       0.04287507      -0.11023490       0.03811684       0.06019640       0.11101299      -0.47872509      -0.78905424      -3.98683056
H       -6.32745457       1.46875262      -1.08546734      -1.03963470       0.36953741      -0.73113459      -0.05083317      -0.09487491       0.01821917       0.00247638      -0.09897372       0.00801974      -0.03939274       0.05111294      -0.01635518       0.02208929      -1.09383292       0.34589608      -0.73574507      -3.83195133
H        3.22523022      -3.03512621       0.88284469      -0.41156614      -0.43844700      -0.06514059      -0.03549169       0.00259717       0.03422109       0.00829178      -0.05476336       0.04248071      -0.04258061      -0.09519088       0.12143336      -0.08878693      -0.41694210      -0.48106722      -0.10246232      -3.83224291
H        2.42149568      -3.53376079      -0.56901193      -0.68987530      -0.00084261      -0.28741804      -0.05940905      -0.01091772      -0.02667693      -0.04615045      -0.02546924       0.01230180       0.04870270      -0.03993554       0.05089137       0.05342305      -0.67060955       0.01258057      -0.29124587      -4.03167839
H        1.90747452      -4.14164019       1.03618073      -0.71767384      -1.70127606       0.76887769      -0.06181590      -0.06866776       0.08006025      -0.03073449      -0.06336629       0.10602731      -0.03881367      -0.03029031      -0.04829454      -0.01718124      -0.72110975      -1.70300128       0.78240763      -4.02612355
H        2.62082624       0.95453799       2.73671794      -0.45927003      -0.18159981      -1.27676773      -0.05133824       0.09862008       0.03005980       0.07133619       0.07524858      -0.00508073       0.04653028       0.04478254       0.00246255       0.14084246      -0.42531361      -0.12733221      -1.26104041      -4.06837041
H        1.67749548       2.10811257       1.79514194      -0.63153648      -0.03109503       0.14585540      -0.06289011       0.00366626      -0.02850640      -0.03206327      -0.00273064       0.10565532       0.01591990      -0.02446781       0.00871395      -0.00161645      -0.57211116      -0.01852940       0.15973614      -3.99044570
H       -1.92476749      -1.45415318      -1.76110828       0.42571869       0.23913798       0.66282445      -0.04773188      -0.00730705       0.04082779      -0.03696497       0.06891346       0.12923501       0.03944505       0.05628460       0.06713741       0.08128881       0.42466693       0.15124342       0.67088358      -3.91465514
H       -2.28260255      -0.11311346      -2.63675547       0.10583613       0.73069906       0.79340506      -0.04625652       0.00244630      -0.01215014       0.03025506       0.06142050       0.00934135       0.05886985       0.16517227      -0.01010824       0.16567991       0.06037229       0.74062092       0.79881366      -3.85538636
H        0.37488425       0.19266015       2.84772086       0.07696889      -0.33419940       0.02389404      -0.06287958       0.01423901      -0.01149915      -0.09906279       0.01486866       0.00576431       0.07046785      -0.00897839      -0.03478308       0.12668252       0.06998232      -0.32631224       0.12089308      -3.81837129
H       -2.11547446       1.38297594      -0.49804837      -0.26567936      -0.55109221      -0.05114616      -0.01908858      -0.07193268       0.09683667       0.02481632       0.07012389       0.07443532      -0.02857548      -0.05951066       0.02257520      -0.00446814      -0.16582317      -0.55918660      -0.11858950      -3.74000974
51
Properties=species:S:1:pos:R:3:original_dataset_forces:R:3:LES_q:R:1:LES_BEC:R:9:forces:R:3:energies:R:1 original_dataset_energy=-221.80795288085938 energy=-221.74495334535925 stress="-inf -inf -inf -inf -inf -inf -inf -inf inf" pbc="F F F"
O        1.93019938       2.14683962       1.00847423      -0.80863231      -0.21788147       0.73130369       0.25579247       0.82047321       0.20051749       0.25216920      -0.15532421       1.33626411      -0.32570446       0.06655199      -0.26485022       0.47433169      -0.85313261      -0.16606478       0.79473914      -4.76915361
O       -3.15476966      -2.07743979       0.38167596       0.93260461       0.36236918      -1.12039256       0.27882749       0.88139203       0.03722819      -0.09323773      -0.17773599       0.84271511      -0.18409495       0.25539785      -0.29376433       1.27941084       1.03143806       0.45452432      -1.34373030      -4.69675047
O        0.95210963      -3.16880035      -1.18406582      -0.55728996      -1.79582214      -0.68570065       0.25594378       0.76938445       0.01684121      -0.02819612       0.39946960       1.28026934       0.05992780       0.07269767      -0.36786862       0.36707964      -0.55512687      -1.82954983      -0.57917832      -4.67420663
O        1.31432080       1.37141812      -1.73378897       2.55575371       0.49578667      -1.01532197       0.24995886       1.02794600       0.35959776      -0.34081865       0.06625548       0.93457668      -0.00846279      -0.32649218      -0.21514131       0.61251283       2.55061842       0.47181424      -1.10977992      -4.68007411
O       -3.30918002      -0.38283497      -1.06361771       0.43317962       0.15132627      -0.09006159       0.33977404       0.82102692      -0.28248391       0.10553765      -0.29794372       1.32294133      -0.39242584       0.09383934      -0.07520718       0.82658901       0.51302812       0.06083479      -0.04759602      -4.60269010
C        1.52649617       3.24794769       0.67284799       1.55662644       0.28401649      -1.86829805      -0.07202380      -1.47713918      -0.11177639      -0.79392025       0.20007209      -1.37852205       0.33318729      -0.74009018       0.32295759      -0.62893911       1.66509264       0.25593815      -1.76517232      -5.70884641
C       -2.92803860      -1.52961874      -0.77254003      -1.44495487       0.78453362       1.52793002      -0.06317060      -0.31161498       0.56485417       0.27498541       0.58750910      -1.60066661       0.55422932       0.10405737       0.45030970      -1.58915738      -1.57216757       0.77332581       1.65514364      -5.54576020
C        1.09359145      -2.00246787      -1.48064089      -0.13633803      -0.17441066       3.23849893      -0.10786688      -1.15021923      -0.26352365      -0.17527172      -0.46666066      -1.57706265       0.03804785      -0.46294350       0.29912819      -0.21762543      -0.21911702      -0.06841944       3.16344628      -5.53569779
C        0.29459190       1.16949904      -1.13085556       1.12345147       2.74957728       0.18028674      -0.07109449      -1.16917815      -0.45326737       0.48684247      -0.37489334      -1.28047380       0.06352329       0.53221453       0.02457286      -0.38045891       1.29262497       2.58290717       0.22503322      -5.68775935
C       -0.36163390      -1.97212255       1.84010935       3.20843601       2.20775723       0.10971023      -0.03779851      -1.16470758       0.28887314      -0.65034404       0.08590979      -1.51773173      -0.12794218      -0.46206783      -0.02254282      -0.41903931       3.39808053       2.28721713       0.08396425      -5.66947538
N       -0.84568685      -3.01750708       1.39217567      -5.00009441      -3.05009913      -2.28109455       0.06625687       0.46449057      -0.15794008       0.28318822       0.17717854       0.94379057       0.08024241       0.18873139       0.02192740       0.33711289      -5.17094429      -3.14287635      -2.20030769      -3.86538490
N        2.17931056      -1.33908260      -1.06459188       0.65713388       0.35714364      -0.74786377       0.14473593       1.01936310       0.08590093       0.08226681      -0.05558397       0.74889200       0.06708704       0.40259269      -0.01693319       0.20607718       0.76652707       0.26632040      -0.70947867      -4.62320019
N       -0.94321775      -0.82391608       1.65697050      -1.88217497       1.33223438      -0.41064233       0.06541449       0.45107432      -0.14823968       0.20789785      -0.31421004       0.92786166       0.23731283       0.14274613       0.01008735       0.26437308      -1.89130891       1.29198182      -0.64476718      -4.53878668
N       -0.29974285       0.04757571      -1.14499903      -2.13583493      -3.41932631       0.71910620       0.05917334       0.63701762       0.18663490      -0.22442249       0.25033080       0.84287819      -0.00280637      -0.06109625       0.09735050       0.16924717      -2.11161631      -3.65602023       0.64361211      -4.84222413
N        0.41668671       3.44575882      -0.09221756      -0.19937477       0.45762098      -0.26990950       0.08982526       1.00036747      -0.07162225       0.45523397       0.13459167       0.84261560       0.00128386       0.43958350      -0.16348791       0.44133295      -0.22811575       0.65317224      -0.23612980      -4.52571453
N        0.87014514      -2.07385826       2.28146267       2.95835090       1.78092432       1.77720559       0.09320067       0.71250105      -0.09637457       0.39229356       0.05577311       0.54478080      -0.07939473       0.22596205      -0.00544260       0.29627214       2.73103243       1.70900351       1.86872266      -3.61848171
C        2.48760176       4.45066500       0.74701571      -0.88863766      -0.45911026      -0.62671489       0.09443800       0.04329722       0.16958586       0.03912578       0.09460687       0.03656354      -0.00098498       0.05556780       0.05604482      -0.10402106      -0.85892911      -0.45378945      -0.60183716      -4.47394184
C        3.38053775      -1.99923742      -0.48595089      -2.41365457       0.33325580       1.06397951       0.06919939      -0.25761992       0.04037905      -0.06693390       0.27370950      -0.25666797       0.02427433       0.09413578      -0.05226472      -0.22639663      -2.28280955       0.39644832       1.13452737      -4.66935183
C       -2.19546318      -2.32270408      -1.79200494       0.72400963      -2.48056579      -0.92186344       0.06904003      -0.01626812       0.04638611       0.00628160      -0.21797469      -0.08380826       0.06597609      -0.17223473       0.12681942       0.06120032       0.60814729      -2.45117695      -1.06721082      -4.76209054
C       -0.55715275       0.40511668       2.30556393       0.67649871       0.34976226       1.47526765       0.01749675      -0.22267449      -0.10714918      -0.14197785      -0.08717382      -0.40733799      -0.03648067       0.02868609      -0.12648483      -0.17378080       0.75234535       0.43229864       1.57506623      -5.02113963
C       -1.43770099       1.54939067       1.94037962      -1.71756911       0.52229583      -1.99449253       0.09058551      -0.12126371      -0.00672214      -0.16968457      -0.01936931      -0.09495194       0.11581045      -0.08592051       0.11179558      -0.09674576      -1.93779612       0.71049730      -2.36562837      -4.67853197
C       -1.23317719      -1.58893239      -2.71070528       0.61435354      -1.30024922       1.27175534       0.09982663      -0.15716924      -0.16054601      -0.19440105      -0.02475081      -0.12318179       0.00139015      -0.02928680      -0.01645426      -0.17879755       0.55292395      -1.28994857       1.27807825      -4.79414593
C       -1.59098673       2.15856171       0.45290995      -0.53866577       0.65710896       0.44573724       0.08817531      -0.06049825      -0.20184464       0.03656444       0.04195869      -0.20532209       0.00173304      -0.02721987       0.10903092      -0.24066323      -0.62490802       0.66017667       0.68978339      -4.63115706
C        0.03820437      -1.08255172      -1.99893761      -1.73679423       0.68809336      -1.17607462      -0.02131345      -0.31993052      -0.04139329      -0.03694986      -0.02963248      -0.43391245      -0.37019536       0.04728343      -0.12579152      -0.12443324      -1.70083757       0.55233362      -1.18904431      -5.07697777
C       -0.45992088       2.34544992      -0.56239599      -0.05168975       1.27464592       0.83369756      -0.01149936      -0.28637630      -0.22313518      -0.07182356      -0.26871045      -0.19274705      -0.13386106      -0.09650460      -0.13688394      -0.18310734       0.09286108       1.32091638       0.65850848      -5.08071803
H       -1.68885875      -2.77475405       0.83553076      -0.77434760      -1.13491106       0.01252245      -0.07072054      -0.70330965       0.10554952      -0.15600143       0.25403436      -0.05524824       0.05617670      -0.19148170       0.05913275      -0.16830067      -0.56939204      -1.27727157       0.20979639      -3.62191773
H       -0.31407961      -3.78712463       1.13461840       0.98814374      -1.29300106      -0.34724617      -0.15319517      -0.18707252       0.10858651       0.02644348       0.02920678      -0.33944536      -0.00327165       0.03422657      -0.01742203      -0.19925406       0.99060995      -1.21172485      -0.42447911      -3.59098729
H        2.11332560      -0.33200195      -1.22715127       0.89045727      -0.21605568       0.08525269      -0.13815717      -0.25247487       0.17322524       0.10798517       0.18187435      -0.43967158       0.05365615      -0.00668525       0.07823106      -0.14976205       0.85737660      -0.16808327       0.12135519      -3.65024406
H       -1.90824628      -0.91506124       1.26119506       0.60825604       0.15421112       0.46439785      -0.14794444      -0.31377845      -0.04068362      -0.22597549      -0.10614709      -0.21999428      -0.09998331      -0.06328106       0.00370348      -0.27520419       0.62694635       0.20751217       0.55977706      -3.65516610
H       -1.23735082       0.09029752      -0.79956609      -0.61136085      -0.55102354       0.08337303      -0.17783035      -0.41718602      -0.05511216       0.00247928      -0.01446363      -0.04069675       0.07167466      -0.01812467       0.10381264      -0.19035471      -0.75541603      -0.60733993       0.11956096      -3.47275905
H        0.19381833       4.41384983      -0.39968890       0.35398886      -1.50607729       0.41871166      -0.19958475      -0.12350755       0.21831035       0.01267645       0.02597755      -0.31631130       0.03545266       0.03771155       0.08647195      -0.18739348       0.36770257      -1.55079462       0.38543676      -3.60475514
H        1.43863750      -2.88365841       1.99972153      -0.51058686       1.08732975       0.42523053      -0.16377090      -0.19571367       0.00318284       0.05369684       0.07934872      -0.24291928      -0.01727809       0.02566193      -0.02453968      -0.21345846      -0.44375457       1.10023182       0.32533342      -3.65048916
H        1.29245710      -1.15646052       2.51103401       0.21005973      -1.47225976      -0.28015527      -0.16607544      -0.14070666      -0.14825065       0.08548775      -0.08558942      -0.28835823      -0.06054382      -0.03084111      -0.01886149      -0.16468278       0.16007210      -1.50501695      -0.25295113      -3.46014523
H        2.63282037       4.87099028      -0.26183444       0.07691746      -0.31967837       0.44458592      -0.04768175      -0.00776822      -0.00631771      -0.00962683      -0.00957064      -0.02360249      -0.05532290      -0.03773851      -0.09588350       0.06081038       0.06318984      -0.31873063       0.46101167      -3.99886706
H        3.40732074       4.13749027       1.19576526       0.43238252      -0.26172173      -0.01076245      -0.04787479       0.11230135       0.07755976       0.04634614       0.00695949       0.01664155      -0.00133569       0.03728145      -0.00380462       0.00042005       0.43251776      -0.27156601      -0.04824042      -4.01365462
H        2.08148479       5.21328735       1.35589290      -0.49568546       0.97082841       0.65516937      -0.05484207      -0.00167410      -0.03381761      -0.00964304      -0.02190566       0.05924031       0.05284595      -0.00352158       0.05753106       0.02153056      -0.51610208       0.98691919       0.64950673      -3.97537450
H        3.46021628      -3.03662014      -0.81480563      -0.53780830       0.09353635       0.22605519      -0.04289875      -0.08609856      -0.00214569      -0.00418540      -0.07564944       0.08428385      -0.00125158      -0.05524557       0.04283845       0.00189914      -0.56386964       0.09160789       0.25777427      -4.00378577
H        4.19221687      -1.51220632      -0.97900462       0.95077378       0.61449862       0.80392486      -0.06259536       0.07526523       0.01854029       0.01409547       0.02046560      -0.01230396      -0.00316411      -0.10074887       0.01251549      -0.00768686       0.90835228       0.61656009       0.74675165      -3.94800448
H        3.20801306      -1.94796145       0.67515171       1.31842756      -0.03962801      -2.20236397      -0.04894372      -0.08801309       0.05018114      -0.03119719      -0.07428470       0.02379147      -0.01003348      -0.01345603       0.02299565       0.12629356       1.29838917      -0.12196297      -2.26255247      -3.97301862
H       -1.59361279      -3.07887745      -1.27077568      -0.51014990      -0.14725947      -0.24422079      -0.04004870      -0.08084115      -0.11487899      -0.02555297       0.02196819       0.16221334      -0.02579424       0.01349937      -0.04595038       0.02224285      -0.47948846      -0.08364381      -0.19678722      -3.87878824
H       -2.96405077      -2.84695911      -2.42049170       0.61862695       0.33711165       0.67429817      -0.05354224       0.10328781       0.09019418       0.03151571       0.10174393       0.07576819       0.05964658       0.02463547       0.02902130       0.03398628       0.64976173       0.33091232       0.61668547      -3.89416666
H        0.48629743       0.80027986       2.05956674      -0.93942952      -1.31080675       0.64376414      -0.03822305       0.00041966      -0.09317897       0.09861069      -0.08189762      -0.10381969       0.03312802       0.04571295       0.11035472       0.00907844      -0.72093840      -1.22416417       0.58751229      -3.98763123
H       -0.82099545       0.21416438       3.41357732       1.29973817       0.68493301      -1.31399727      -0.06312108      -0.04817889       0.01689797       0.07850341       0.01745172      -0.01825230      -0.06425222      -0.01037284      -0.02575596       0.11307406       1.29186222       0.63665918      -1.26071437      -3.74933171
H       -1.26630318       2.36876535       2.64513612       0.05010632      -0.25383881      -0.25849608      -0.06352185      -0.01698444      -0.02544168       0.05471378       0.03915959       0.01606232      -0.06614734       0.03131033       0.06229060       0.09313587       0.01787222      -0.25982399      -0.22820654      -3.96843518
H       -2.46234989       1.19529450       2.04185557      -0.17704810       0.20439190       0.65774387      -0.05479868       0.06955366       0.03831808      -0.03054946      -0.02648946       0.01433130       0.00453358      -0.00539066      -0.07982554       0.01861295      -0.22758884       0.13758881       0.71275237      -3.72099594
H       -1.82684898      -0.82501608      -3.10082126      -0.26720342       1.93867421      -0.63112473      -0.04965279       0.09088997       0.01721966       0.15123347      -0.01654292       0.10009975      -0.04123763       0.04046007      -0.03098470       0.05354456      -0.28748844       1.93910620      -0.67241128      -3.80188694
H       -0.87278169      -2.13722467      -3.58006048      -0.31972447      -0.60432750       0.27052778      -0.05867829       0.05339187       0.05741188       0.01138824       0.00336146       0.02109486       0.04676215      -0.07764894       0.05803506       0.12801854      -0.31845617      -0.58961556       0.26795847      -3.92883460
H       -1.91745925       3.17163086       0.70975101       0.34262684       0.11168554      -0.16822611      -0.05008691       0.04917093      -0.06527060      -0.02190103      -0.06399352       0.13036177       0.03812727       0.03124337      -0.08709147      -0.00352819       0.34200231       0.16452733      -0.06125349      -3.68986727
H       -2.50380135       1.87302768      -0.08779478       0.39998993      -1.12037909       0.41938692      -0.03951424       0.07428614       0.00334054       0.02822979      -0.09263987       0.01019203      -0.00883606       0.05943835      -0.04674249       0.03887865       0.35272665      -1.12153995       0.49817722      -3.95004362
H        0.56593877      -0.74051988      -2.82198000       1.04802263       1.72880161      -1.61555898      -0.03810032       0.04039106       0.00505634       0.06556186      -0.00857355      -0.00482092      -0.00231772      -0.05491469      -0.03161013      -0.03494470       1.05147256       1.73231686      -1.63285829      -3.40229484
H       -0.86293679       2.66821909      -1.53709805      -0.37327486       0.41644090       0.62142444      -0.05991919       0.06067585      -0.06925709       0.01126013       0.01879407      -0.06039890       0.02709377       0.00207889       0.03463090       0.10067025      -0.47626986       0.54547149       0.61030026      -3.60745029
42
Properties=species:S:1:pos:R:3:original_dataset_forces:R:3:LES_q:R:1:LES_BEC:R:9:forces:R:3:energies:R:1 original_dataset_energy=-189.84376525878906 energy=-189.79203366355185 stress="inf -inf -inf -inf inf inf -inf inf inf" pbc="F F F"
O       -3.86444235       0.53705102      -2.96977901      -0.13091300       1.96153331       0.48436955       0.27760565       0.88336126      -0.20230248       0.30528344      -0.77053603       1.01451855      -0.39199693       0.21203363      -0.00350373       0.40964509      -0.11175108       1.92612685       0.51673554      -4.62113496
O       -0.21811534       2.85849714       1.03054261      -2.56650186      -0.50731570      -2.18228555       0.28061083       0.87614841       0.12593714       0.16858184      -0.06328800       1.01106214      -0.19556698       0.33438838      -0.19727277       1.16868389      -2.60295893      -0.44559420      -2.14266530      -4.66734364
O        1.82476079      -0.75157607       1.28877640      -1.21139026      -0.53664136       2.42277479       0.29391262       0.79249588       0.12425869      -0.50762831      -0.09379571       0.59090890      -0.31975626      -0.20647341      -0.40094940       1.09211304      -1.18190339      -0.52290564       2.35774833      -4.58939781
O       -0.73317564      -1.88763404      -0.34636241       0.60330313       0.51882988       0.21012269       0.29656669       0.43411302      -0.00855491       0.15699911      -0.00326226       1.38025622       0.17515990       0.23753379       0.06143710       0.74079762       0.62083524       0.49155284       0.21136884      -4.61555533
O        1.44647479       2.84399462       2.34638882       0.89412093      -0.75583583       1.39429820       0.39775011       1.40182807       0.48014402       0.54909672       0.46190735       0.84255743       0.18751464       0.19202186       0.07460750       0.92014439       0.90728554      -0.72538846       1.32301035      -4.26025881
C       -3.37877750      -0.55382824      -2.84985566      -0.58262569      -0.39554432      -1.30897295      -0.04360749      -1.82236624       0.27108713      -0.95212851       0.88441202      -1.11375420       0.46574804      -0.67593174       0.02626248      -0.41392257      -0.61855094      -0.36867743      -1.34387817      -5.95717708
C        0.34603554       2.38200092       2.03172183       2.28618002       0.30030853       0.32767761      -0.06560419      -1.58949490      -0.67946017      -0.84396258      -0.45005134      -1.01519547       0.45640809      -0.63551092       0.51572435      -1.28336208       2.26127357       0.26676490       0.48577132      -5.65760838
C        0.96082807      -0.95375007       2.17714047       2.03485584       0.20012982      -2.24494791      -0.08151039      -0.88406450       0.11210127       0.36763267       0.22447118      -0.78631147       0.84836847       0.22564060       0.83029569      -1.43087647       1.92111726       0.15553530      -2.21378840      -5.61328373
C       -0.77552938      -0.64840186      -0.30536702      -2.02337837      -4.62873507      -3.62311602      -0.04573443      -0.12514007       0.08723945      -0.26898071      -0.03315619      -1.64456574      -0.42314588      -0.36135174      -0.33483785      -1.19786569      -1.97152011      -4.57283511      -3.55476261      -5.57528792
C        2.30728006       0.43843907      -1.87781429      -2.72915339       0.36130086      -0.19486365       0.03311796      -0.23235812       0.01642654       0.07472810       0.01061697       0.00102615      -0.20699879      -0.14511710      -0.07295281      -0.08752184      -2.80303227       0.39578705      -0.23567154      -5.40085003
C        1.07369208       1.09215152      -1.66719794       2.82833552      -0.98236799      -1.33140504      -0.05164739      -0.29663490      -0.02136274      -0.12115568       0.18781439      -0.10963929      -0.14995453      -0.12194454      -0.13970936      -0.01404292       3.12749459      -1.05992235      -1.53572725      -5.46513844
C        2.68076611       2.17529678      -0.64340633       3.08672547      -0.66797447       1.77972186      -0.06217368      -0.43751167       0.22474044      -0.00350768       0.22564427      -0.17190633      -0.05241130      -0.09751646      -0.18326503      -0.21542423       2.93387405      -0.71351381       1.89641252      -5.42536330
N        3.31141710       1.04820299      -1.21949816      -1.67515016       2.40875578       0.64850450      -0.03613361       0.39931420      -0.17347595       0.03214653      -0.28115154       0.05022071       0.12470864      -0.03110121       0.13395679       0.06885417      -1.55807393       2.49994289       0.67724179      -4.90055949
N        1.10347998      -1.82992947       3.21609259       0.52343804       1.00114477      -0.63963330       0.06591661       0.49666720      -0.20015646       0.09041437      -0.17047539       0.64108672      -0.73477472       0.04231820      -0.52866581       0.86483051       0.47708090       1.01149227      -0.64588992      -4.83471096
N       -0.69272965       0.08216435       0.71776289       0.50456935       3.78234577       3.58250833       0.03397978       0.14158053      -0.02775459       0.18521401       0.04457398       0.73870280       0.23268389       0.25874078       0.37317186       1.02324733       0.65877777       3.66903316       3.67085425      -4.88135417
N       -2.17547941      -0.83123255      -2.36489534       2.84350228       2.46855640       1.99910343       0.08529878       1.38540316      -0.07847280       0.73341562      -0.08231408       0.49934912      -0.03240268       0.52333584      -0.02878934       0.49671309       2.87661390       2.41619801       2.00539205      -4.55533328
N        1.41880202       2.24381208      -0.98027664       0.75389957      -1.96887016      -0.18227941      -0.07090352       0.44490389      -0.20307550      -0.06805704      -0.29807929       0.08237196       0.24000536      -0.12198970      -0.01920274       0.23113479       0.81786673      -1.83820326      -0.10158667      -5.09517460
C       -4.17031574      -1.73073637      -3.30190349       0.45001161      -0.15479504      -1.60344958       0.09221513       0.01894427       0.07411493       0.05925570       0.03367285       0.07697877      -0.01575079       0.00091021       0.00666185      -0.20440806       0.41643429      -0.19583500      -1.59546545      -4.36193998
C        2.39106035      -2.33841586       3.57836151       2.37444997      -0.26816836      -0.95026886       0.08873393      -0.39506421       0.06287825      -0.02802534       0.03916568      -0.16178870      -0.01940045      -0.12395689       0.08317606      -0.25437978       2.39676056      -0.30097955      -0.94999848      -4.68596866
C       -0.28065223       1.20803761       2.80659056      -0.42584020      -0.70657867       0.79790193       0.08016589      -0.01188991       0.11684552      -0.01252403       0.04939296       0.03698875      -0.06626427      -0.06759371      -0.09523438       0.00508398      -0.41820731      -0.64997555       0.74662965      -4.49675246
C       -0.17535767       0.68842268      -2.35985041      -0.94368875       2.34194708      -1.98030818       0.04312248      -0.03173084      -0.01418938      -0.02543525       0.03564206      -0.10606288      -0.01756752       0.07760864       0.01080154      -0.09991036      -1.02221913       2.32408719      -1.88613216      -4.85215356
C       -0.34076110      -0.20361140       2.10792994       1.51136279       1.53502285      -1.29110980      -0.01759352      -0.07418251       0.01140179      -0.15349200       0.02986170      -0.27403266      -0.18936078      -0.09441440      -0.07337984      -0.68322901       1.40655926       1.48142157      -1.26577905      -5.14309019
C       -1.29450107       0.09883946      -1.56158662      -1.70085597      -0.05415625       1.53999639      -0.00352519      -0.39596452      -0.15938758      -0.06624264      -0.26245978      -0.26103757      -0.30065847      -0.10390527      -0.19538626      -0.30104886      -1.71663162      -0.05921163       1.54425284      -4.79323423
H        2.43073988      -0.36187905      -2.55112100       0.32740587      -0.81842953      -0.28929934      -0.07201389      -0.00287233      -0.00960986      -0.04228550      -0.03740760      -0.05020177       0.07252714       0.05557046       0.04000055      -0.07349357       0.33864610      -0.92058614      -0.24823424      -4.08125226
H        3.03337049       2.68891191       0.29368579      -0.13076565      -0.27571577      -1.49535036      -0.06970705      -0.06634170       0.04704212       0.03763316       0.05521443      -0.00085648       0.01530258       0.12813041       0.08385741      -0.09917829      -0.13897454      -0.33313429      -1.59216157      -4.11882361
H        4.29797316       0.76616061      -1.29986477      -0.97755337       0.65152007       0.58912343      -0.19411092      -0.34132257       0.04868557       0.03760090       0.13096031      -0.18440332      -0.03202295       0.06797466       0.02350530      -0.20036146      -0.95552089       0.58543167       0.51229528      -3.72869189
H        0.31817198      -2.16371369       3.73295307      -0.32106537       0.25771585       0.05952389      -0.19412732      -0.18303609      -0.07116444       0.09182922       0.00055675      -0.25274932       0.09185262      -0.01705564       0.09460661      -0.34649989      -0.31433559       0.27906428       0.09868867      -3.63448699
H       -0.69657898       1.10114634       0.53072995      -0.22226609      -0.45197099       0.43669885      -0.16710156      -0.19632078      -0.11213970       0.03405169      -0.07483105      -0.62779307      -0.10320855       0.05221424      -0.04695825       0.01501911      -0.20788686      -0.47983821       0.33280488      -3.50159214
H       -1.77229404      -1.72390366      -2.32268739      -0.07830504      -1.51740706       0.08734278      -0.18617333      -0.26611560       0.06891739      -0.08816861       0.14158927      -0.21205710       0.10124859      -0.04531330       0.03661799      -0.26325803      -0.12291114      -1.50333440       0.05347655      -3.58875731
H        0.83747113       2.79681492      -0.37035665      -1.40653527       0.74017179       0.92962760      -0.12964979      -0.37890707       0.20964912       0.27997891      -0.00433870      -0.30932128      -0.03345859       0.30062007      -0.11769915      -0.56868932      -1.53010861       0.83177491       0.94840974      -3.90215065
H       -3.48050451      -2.55021596      -3.48475242      -0.35079920      -0.62295252       0.72517323      -0.05102382       0.00930220      -0.05303330       0.00030644       0.01694388       0.05806159       0.05787350      -0.01551850       0.01425111      -0.01234628      -0.32092844      -0.58929612       0.72612299      -3.92550257
H       -4.55758715      -1.54931903      -4.36317253      -0.24623048       0.11898520       1.97284400      -0.04388325       0.07799432       0.03106609       0.10164536      -0.01339414      -0.01067467      -0.00290403       0.22616966       0.06022028       0.22989728      -0.24243564       0.12686454       2.01550640      -3.94326089
H       -4.85804224      -1.80590093      -2.44742322      -0.32349715      -0.82913804      -0.94973212      -0.05642583       0.06108576       0.04111112      -0.01631810       0.05851051       0.00673015       0.03441906      -0.10621433      -0.02921475      -0.00239270      -0.34176727      -0.81270070      -1.01523895      -3.89301300
H        2.37274647      -2.73659086       4.55808353      -0.41015512      -0.37411156       1.09732449      -0.05812153       0.01170635      -0.00248771      -0.00519111      -0.02511847       0.00281932      -0.03451233       0.08486795      -0.09185348       0.12706908      -0.39314878      -0.36609546       1.11197519      -3.93936817
H        2.71583366      -3.21751595       2.93325233      -0.20112261       1.35709703       0.45163032      -0.05292505       0.01049990      -0.01937683      -0.01544088      -0.04443823       0.02911303       0.04458475      -0.02401085       0.05982551      -0.00846474      -0.19505180       1.35523050       0.42991902      -3.96941630
H        3.22837114      -1.53641653       3.64598417      -1.63404143      -1.22877967      -0.67318040      -0.04413291       0.07638542       0.03214673       0.01053919       0.09534869      -0.00649631       0.06036625       0.00216435      -0.00507057      -0.01638269      -1.64097389      -1.24070397      -0.67360460      -3.95005320
H       -1.32617235       1.46278381       2.96728277      -0.06296530       0.12688036       0.08771722      -0.05240392       0.08684039      -0.06115996      -0.06659988      -0.01626717       0.00702177      -0.01299395      -0.02247543       0.05142468       0.05174906      -0.04144142       0.12527041       0.11591443      -3.87288602
H        0.18737030       1.08887184       3.79919243      -0.09022382       0.17090191      -0.60204357      -0.05459413       0.00577037      -0.00280551      -0.01768230       0.01476740       0.04311026       0.07805655       0.04808765      -0.01049374       0.17986564      -0.10465128       0.18667061      -0.59199375      -4.02171073
H       -0.69282389       1.61948490      -2.77910709       1.15680516      -1.08743382       0.02712962      -0.05759343       0.03576426      -0.02330890       0.01763905      -0.02274354       0.03597838      -0.03948390       0.01151234      -0.03927924      -0.00461207       1.11766350      -1.11514449       0.02906500      -3.76365113
H        0.09431377       0.05797970      -3.23110104      -0.17936008       0.26048234       0.69869518      -0.06254306       0.01933389       0.00461096      -0.06633444      -0.01133278       0.00488804       0.06609655      -0.00829966       0.05939779       0.07252702      -0.15434022       0.31556920       0.64472815      -3.95757245
H       -1.00883055      -0.83733100       2.59485269      -1.83798027      -0.66515571       0.60519129      -0.06621718       0.01770448       0.02124743       0.07167214       0.02881437       0.10944097      -0.04492332      -0.00573442      -0.04298030       0.09048265      -1.80984505      -0.62228336       0.59677861      -3.75138822
H       -1.88828731       0.93283749      -1.05994439       0.28531355      -1.06534278      -1.41500342      -0.04607191       0.04417125      -0.08837292      -0.03650360      -0.01143974       0.03565583       0.06659334      -0.05041450       0.01689636      -0.00618689       0.24088687      -1.00765903      -1.45852429      -3.72600859
42
Properties=species:S:1:pos:R:3:original_dataset_forces:R:3:LES_q:R:1:LES_BEC:R:9:forces:R:3:energies:R:1 original_dataset_energy=-191.9521484375 energy=-191.91538127432088 stress="inf -inf -inf -inf inf -inf -inf -inf inf" pbc="F F F"
O        0.05805951      -1.99578738      -4.34276915      -0.02265715       0.99013442       0.07439139       0.28527242       0.36205870      -0.19612931      -0.06372017      -0.19366655       1.34388596       0.29472474       0.00258944      -0.03507412       0.83217905      -0.03605733       0.95795185       0.07841316      -4.65575350
O        2.21446204      -1.63792610       1.23346055      -0.08057097       0.13946447      -0.23451407       0.32469851       0.71350639      -0.12092150      -0.11547665      -0.31936746       1.14841464       0.23865966      -0.15996608       0.11096352       1.25379883      -0.05732214       0.15279130      -0.25544235      -4.62212558
O       -1.01996136       1.08578146       2.19045877      -0.91565681      -0.37469396       0.06512706       0.23095718       0.93564085       0.53589268       0.01426858       0.32143135       0.93759671       0.37272937      -0.14014730       0.20572729       0.52777127      -0.82171972      -0.33875581       0.03812400      -4.80311460
O       -0.32568485       1.84465921      -1.34473765       0.25475442      -0.47620881       0.41758868       0.27450073       0.48813452      -0.24354515       0.29045284      -0.29734488       1.15556718      -0.29846413       0.20686462      -0.09086341       0.81568836       0.25800458      -0.51290241       0.47013753      -4.70298520
O        1.33463502      -1.29134369       3.24645638       0.02216008       0.33217922       0.27808553       0.35804680       0.58503222       0.14725203      -0.49069209       0.16875235       0.82471555      -0.33278589      -0.18345301      -0.14960246       1.52982119      -0.07873644       0.30125889       0.28907413      -4.51930196
C       -0.17227381      -0.78611392      -4.42031670      -0.12285186      -1.12969267      -0.86899656      -0.06377754      -0.13511929       0.33574259       0.13887457       0.31377563      -1.66594645      -0.60227508       0.06634619      -0.33435145      -1.65732093      -0.09364203      -1.06278952      -0.87481867      -5.84694941
C        1.91063595      -0.90050554       2.21612740      -0.35523343      -0.30284116       0.05091708      -0.03741745      -0.35196762      -0.15058498       0.85428441      -0.04431208      -1.36849456      -0.09730846       0.51269175      -0.00573861      -2.07862295      -0.33142316      -0.29417221       0.06713689      -5.64281542
C       -0.02688324       1.76763904       2.10860395       0.76873165      -0.41782343      -0.71783328      -0.07673711      -1.02920661      -0.55335625       0.18086017      -0.49732628      -1.47258497      -0.78062700       0.17453903      -0.74172011      -0.78467166       0.68760852      -0.38175716      -0.71839694      -5.75499130
C        0.10919887       0.73922908      -1.01771259      -0.09390119       1.11082065      -0.25267971      -0.06861459      -0.50465080       0.42093680      -0.78354835       0.40843522      -1.28917716       0.33220445      -0.64972638       0.15716786      -1.32447866      -0.15630879       1.14245394      -0.35400629      -5.74164680
C       -1.73735309      -1.53260636       1.01380110       0.16098870       1.01982522      -0.62396741       0.02920238      -0.05935342       0.19054069      -0.13603995       0.12072540      -0.24220203       0.05058812       0.02366695      -0.08114292      -0.05317444       0.18138966       0.94672563      -0.56540280      -5.28828853
C       -1.18339837      -1.95030224      -0.18125699      -0.67823029       1.18031466       1.02316523      -0.03967622      -0.09087033       0.08189011       0.05944984       0.19129543      -0.01266703       0.01810816       0.01454015       0.24696515      -0.39603546      -0.59280594       1.20364279       1.00124256      -5.59017621
C       -0.23319668      -3.07212400       1.47841978       0.74958020       1.10039711       0.53079665      -0.04722441      -0.20754110       0.06033155       0.13730822       0.05447354      -0.21298177      -0.09355931       0.12784547      -0.18481309      -0.53351028       0.72375886       1.10334978       0.53720906      -5.77998309
N       -1.10171330      -2.22038960       2.06362605       0.15859516      -0.35810301      -2.08575344      -0.03743368       0.15950091      -0.13950824      -0.06770604      -0.11402959       0.18526026       0.07886423      -0.08045140       0.10056129       0.41215858       0.06378475      -0.33476267      -2.12669502      -4.95155178
N        0.17177713       2.88328695       2.82910466      -0.09269714       0.42204046       0.11006919       0.08008371       0.45256419       0.03763552      -0.15539462       0.16657458       0.90337679       0.51015920      -0.04697443       0.59189180       0.60275033      -0.06246612       0.41310237       0.14232642      -4.84676642
N        0.81780678       0.46741712       0.10171917      -0.46395046      -1.03593266      -0.44937044       0.09517580       0.46217191      -0.19539147       0.56106542      -0.10601651       0.57006432       0.03459985       0.48292539      -0.10131807       1.03298155      -0.44819254      -1.11758297      -0.42484632      -4.68089955
N       -0.36948520      -0.00595450      -3.35353565       0.17838220       1.28879440       1.67020500       0.09072132       0.18792851      -0.07375635      -0.09028586      -0.04246789       0.78590794       0.38114638      -0.12296528       0.37858114       1.25270899       0.20961218       1.27753165       1.71598707      -4.64663379
N       -0.25587672      -2.92692375       0.13576922      -0.39710477      -0.01072938       1.42184651      -0.05878186       0.19072394      -0.14152710      -0.05982901      -0.16119557       0.01103620      -0.00734607      -0.08270437       0.05048121       0.49313369      -0.37503536       0.02339322       1.50085204      -4.91587014
C       -0.31997889      -0.04478323      -5.75208950       0.03240403      -0.98414338      -0.03679163       0.08988447      -0.13487920      -0.03891753       0.01820634      -0.03702766       0.00715590      -0.08827808       0.00380698      -0.09665968       0.11197914       0.01613015      -0.99137679      -0.05504770      -4.40859186
C       -0.83361030       3.44867802       3.71138644      -0.20940122       1.04015207       0.09929320       0.08181676      -0.30927033       0.16774079       0.23757175       0.07388601      -0.15817659      -0.03580668       0.13341036      -0.05236481      -0.23139283      -0.23817564       1.02878208       0.04282480      -4.73540528
C        2.20612860       0.61016023       2.02921605       1.24344099      -0.43958694      -0.63767540       0.08632268      -0.08606131       0.08286986      -0.10074962      -0.05787268       0.17370067      -0.09688387      -0.02632647      -0.03811632      -0.04699163       1.27924766      -0.42966870      -0.63259472      -4.50221175
C       -1.33360243      -1.30309653      -1.53601909      -0.04662139      -0.47266144       0.92902851       0.06064742      -0.14723748      -0.00010443       0.03028652       0.02358958      -0.05653364       0.00776549      -0.02088837      -0.03718546      -0.01414084      -0.03109910      -0.48817271       0.89614310      -4.80491599
C        1.16042876       1.35589087       1.20661259      -0.14581314       0.20842122      -0.38978329      -0.01233723      -0.24501729      -0.09571024      -0.30670616      -0.00519692      -0.21741141      -0.10878067      -0.22007803      -0.11130735      -0.43449310      -0.16345868       0.18011879      -0.33868248      -5.10157079
C       -0.13885868      -0.44154498      -1.97073114       0.37098628      -1.10506296      -0.44389039      -0.02566304      -0.24873266      -0.07241196      -0.02470450      -0.05783927      -0.16778169       0.05701921       0.03636655       0.09754398      -0.48185328       0.29520466      -1.12851772      -0.42238830      -5.06590085
H       -2.38011050      -0.62092525       1.10907769       0.77011871      -1.42108512       0.33720261      -0.06181490      -0.05173436      -0.09023345      -0.01519300      -0.08834937      -0.05864308      -0.02941596      -0.01565783      -0.03365219      -0.04546512       0.79209789      -1.40274574       0.37945309      -4.15881141
H        0.57365185      -3.52580786       2.03895712      -0.30256885      -0.20291713      -0.24817836      -0.06542691      -0.09643050      -0.09419434       0.05945260      -0.02183568      -0.20423371      -0.00098925       0.01643579       0.03999635      -0.09622388      -0.30024247      -0.19154135      -0.25640990      -4.11650776
H       -1.02694798      -1.92287934       3.04755878       0.02615693      -0.28743735      -0.88810974      -0.18931906      -0.28414071      -0.01146188      -0.10173007      -0.02385142      -0.19520453      -0.07343668      -0.01471763      -0.02332060      -0.32660935       0.06053991      -0.30779095      -0.89264555      -3.76149091
H        1.02324796       3.41633177       2.72660494      -0.22862749      -0.30203655      -0.14517227      -0.19861445      -0.21436041      -0.08461046      -0.05205806      -0.05932763      -0.25728883      -0.04573209      -0.02165944       0.00896091      -0.16986957      -0.24647921      -0.31623893      -0.12963936      -3.60624537
H        1.14158607      -0.52033591       0.23649648      -0.02478592       1.10383296      -0.10953283      -0.16095336      -0.34656073       0.22384024      -0.10177667       0.26424277      -0.37794976       0.26680903      -0.08238879       0.21507692      -0.18751127      -0.03534486       1.16953644      -0.19065462      -3.68569833
H       -0.52776158       0.99254906      -3.46663761       0.07509488      -0.40933973       0.11866082      -0.19208145      -0.18539000       0.01435886       0.02091283       0.00295615      -0.31539452      -0.04670573      -0.00558983      -0.03066621      -0.21058540       0.10339260      -0.39832836       0.09491200      -3.60172514
H        0.48156005      -3.28257942      -0.46190786      -0.30823413       0.00825589       0.19054379      -0.19676077      -0.29035661       0.06381602       0.02709063      -0.00201771      -0.25424651      -0.04359152       0.02088677      -0.10039652      -0.21429886      -0.32101508       0.01175394       0.18242167      -3.71635854
H        0.53459126       0.63959217      -5.86860895      -0.48264042      -0.25548041      -0.23574647      -0.05432556       0.03482330       0.05134019      -0.05856133       0.05624427       0.02456567      -0.02329037      -0.01350868      -0.01336427      -0.04375779      -0.48206914      -0.24398783      -0.24575383      -4.04789537
H       -0.39515454      -0.80783767      -6.54857683       0.49671462       0.52742279       0.38305339      -0.04565607      -0.01080661       0.00721040       0.01190087       0.00185250       0.02518670       0.10313961       0.01039488       0.03974891       0.16594279       0.50087833       0.52277907       0.38037881      -3.99569767
H       -1.27234650       0.47563076      -5.77637434       0.09331721       0.40614098       0.13474993      -0.05134841       0.05948615      -0.05000601       0.05069774      -0.04633188       0.01694705      -0.00452532       0.01419976      -0.00892372      -0.05237986       0.08318649       0.41002789       0.13780625      -4.00335153
H       -1.82241058       2.96364737       3.62843251       0.75957954       0.17796692      -0.37706372      -0.04016742       0.08874508      -0.05499728      -0.09590997       0.04432462      -0.04590116      -0.04094173      -0.00120168      -0.01936890      -0.01230300       0.75283244       0.18567516      -0.37081396      -4.01959839
H       -0.91431230       4.54603481       3.46703720      -0.16278647      -1.12424839       0.37594306      -0.05489805       0.00557505      -0.03022372      -0.02721412      -0.05106504       0.12861843       0.06205425      -0.01767569      -0.00445873      -0.00425246      -0.16864508      -1.11611449       0.37810633      -3.95846466
H       -0.51968884       3.34336376       4.75032616      -0.02523034       0.09202959       0.00559215      -0.05810875      -0.00151052      -0.00532583       0.01092556      -0.01816699      -0.01408451       0.00761984      -0.01586615       0.01689252       0.07807219       0.00329370       0.08680169      -0.00888774      -3.98562834
H        3.14126658       0.70052719       1.44485354      -0.36660159      -0.25207600       0.38593680      -0.04738664       0.12144882       0.02336017      -0.00261172       0.03152941       0.01920543       0.00712658      -0.05523128      -0.02014889       0.01781798      -0.35134945      -0.23465313       0.38957527      -3.84279978
H        2.37239146       1.09027314       2.96899152      -0.10218675       0.25594670       0.62721479      -0.05758923       0.05448500       0.03891820       0.09118479       0.04330687       0.07235203       0.08861034       0.06862211       0.06360430       0.13507856      -0.06977231       0.24053878       0.62941759      -3.99713818
H       -1.53176451      -2.09582949      -2.23190284       0.19813974      -0.11406441      -0.74377471      -0.05094094       0.02035140       0.04591111       0.05623352       0.03658875       0.04785380       0.04435675       0.06046027       0.07785163       0.04688714       0.20129021      -0.09818340      -0.75181459      -3.95559591
H       -2.18283463      -0.64731765      -1.55080211      -0.59102339       0.12908842       0.29651558      -0.06483603       0.07526828      -0.04511885      -0.00342414      -0.04791318       0.02164719      -0.03363675      -0.00036970      -0.05137916       0.02438817      -0.58712565       0.10396555       0.30000990      -3.93992284
H        1.64446235       2.26153660       0.81287467      -0.35059464      -0.17402524       0.02134397      -0.05969078       0.00000105       0.02049458      -0.00696916       0.02164725       0.16245305      -0.00406073       0.00241014      -0.02952381       0.04860263      -0.35182583      -0.17547262       0.01698470      -3.83255435
H        0.72931546      -1.09931433      -1.97199094       0.21595725       0.11964896      -0.05856469      -0.05248691       0.03375159      -0.06204605       0.00927406      -0.05310943       0.02139241      -0.06784388      -0.00145475      -0.00655389       0.01818221       0.18805945       0.10333464      -0.05359521      -3.83322676
49
Properties=species:S:1:pos:R:3:original_dataset_forces:R:3:LES_q:R:1:LES_BEC:R:9:forces:R:3:energies:R:1 original_dataset_energy=-214.33584594726562 energy=-214.26866580810528 stress="inf inf inf inf inf -inf inf -inf -inf" pbc="F F F"
O       -3.23197842       0.21528637       3.58626294       0.68528014      -0.84942061       0.09672516       0.30300868       1.19898661      -0.37315550      -0.18558205      -0.53564695       0.54472471       0.08438876       0.20591495      -0.18406223       0.81496907       0.68370920      -0.83364144       0.04841963      -4.57208665
O       -0.83340311      -1.60050929      -2.35381126      -0.29505706      -0.36068282       0.13690194       0.34674442       0.62846622      -0.27698441      -0.40217280      -0.01517616       1.06532819       0.02827835      -0.25730492       0.10654869       1.51647604      -0.22281030      -0.29491551       0.03508313      -4.47504136
O        1.29241323      -0.80119288       2.10003972      -0.34597787      -0.04443782       0.67987001       0.27320859       1.04241062      -0.31793061       0.47140043      -0.12682335       0.64350692      -0.40078625       0.04496416      -0.33222410       0.92945823      -0.38820602      -0.00413601       0.68082830      -4.69096134
O        3.27490044       0.54164833      -1.76845312       0.25627965       0.29105356       0.00592083       0.27409336       0.78802307       0.26940275      -0.30166306       0.11377494       0.89747167      -0.08632525      -0.50696270      -0.29035547       0.79713260       0.25818805       0.31033754      -0.04741136      -4.63617821
O       -1.78568363      -0.22365558      -0.95592457      -1.79030859       2.81744337       1.18774915       0.21010377       0.53959325      -0.20866355      -0.07556789      -0.23649976       1.37425899       0.13266838       0.01728856      -0.10868498       1.01479750      -1.75782217       2.82049508       1.05968629      -4.83740624
C       -2.26459789      -0.38228190       4.07848310      -2.32127905       1.96862471       0.14394823      -0.06630929      -1.69853594       0.65739612       0.61980910       0.84724429      -0.41404584      -0.27718145       0.29903465       0.07770377      -1.43101725      -2.30585044       1.95183462       0.14766442      -5.88745473
C       -1.34179831      -1.32305408      -1.22596550       2.06813335      -2.87411809      -1.44307446      -0.05542563      -0.38616876       0.59996257       0.58402352       0.29201805      -1.71802005      -0.31736568       0.37159452      -0.21968857      -1.54286980       1.98747919      -2.84965882      -1.28349307      -5.62365496
C        0.30282295      -0.30963489       1.56007481       1.11689913      -0.99958819      -0.49438137      -0.08742256      -1.24750711       0.17057896      -0.32906824       0.05577346      -0.73275454       0.89304377       0.00381639       0.90667878      -1.18065251       1.26311790      -1.05300130      -0.43987228      -5.60128404
C        2.49622679       0.05916023      -0.95288384       0.24629468       2.00070310      -1.13105416      -0.08186570      -0.67028868      -0.44034832       0.55008386      -0.27561061      -1.48289695       0.03467555       0.68529218       0.14858280      -0.80089978       0.29392566       2.00426674      -1.15408771      -5.62257752
N        2.18196869      -1.22032237      -0.95877802      -1.28685188      -1.21824145       1.50728846       0.09029812       0.23518218       0.14866461      -0.15672686       0.16665026       1.07118290       0.00899301      -0.18341116       0.12751013       0.35122074      -1.30176842      -1.18230781       1.48244169      -4.85695646
N       -1.22745728      -0.78482044       3.36413932       1.78885257      -1.05370426      -0.54585975       0.07384099       0.97868610      -0.20707891      -0.52711661      -0.19091984       0.37171820       0.06306083      -0.45873750       0.24745122       0.95816300       1.74542872      -1.13299899      -0.52578081      -4.68101238
N        0.46228766       0.51980025       0.51519674       0.41272309       1.23743677      -0.78332502       0.11541737       0.71785846       0.15639446      -0.16631198       0.10149686       0.68510580      -0.43129808      -0.10345658      -0.42652684       0.77591782       0.33662275       1.20997456      -0.77360436      -4.60119874
C       -2.16700625      -0.51617157       5.57631397       0.48112214      -0.85446006       0.68040746       0.08695300      -0.08160718      -0.04193762       0.05187773      -0.05541268      -0.13418398       0.02516810      -0.04586339      -0.03549782       0.30881370       0.49351403      -0.85835651       0.67680261      -4.42583328
C        2.69652987      -2.24441433      -1.84807968       0.23783565       0.12363437      -0.93213934       0.08217161      -0.12973628       0.06770690       0.03183644       0.02534109      -0.26900572      -0.10372217       0.03778651      -0.16046785      -0.23104781       0.22869196       0.14388765      -0.93869893      -4.74569726
C       -1.24922085      -2.45035505      -0.17038444       0.00804048       1.01332057       0.21337612       0.11332845      -0.07930795      -0.01865559      -0.02936484       0.04605369       0.25883026      -0.12578278      -0.07368989      -0.22068435       0.15298746      -0.00906847       0.96381306       0.18356159      -4.63396993
C        1.31024051       3.08431792      -1.63816476       0.03864995       1.20221210       0.20838851       0.10967075      -0.19144013       0.10415475      -0.08958004       0.03380425      -0.01753622      -0.00223174      -0.02079791       0.08406913      -0.17617012       0.10413239       1.23559528       0.25292544      -4.77110222
C       -0.06593934       2.67898488      -2.18775988       0.36270231       0.13269825       0.62575483       0.09452729      -0.12563954      -0.16955648       0.26855185      -0.01910640      -0.06609603      -0.08846629       0.02133179      -0.06462214      -0.04037201       0.30811425       0.05217669       0.53724704      -4.80110886
C       -1.52574658      -2.10660982       1.30631065       0.02481595      -0.29625425      -0.60172051       0.10447455      -0.04441151       0.05003891      -0.04041743      -0.05319968      -0.28638872      -0.08749257      -0.05033634      -0.20406753      -0.14772474      -0.03034803      -0.17414370      -0.49534682      -4.74451292
C        1.77568173       2.54690218      -0.27791405      -0.46110067      -0.53700316      -0.84404147       0.09047004      -0.00221859       0.07897533      -0.00435349      -0.00488349      -0.14126565       0.09952029      -0.01465875       0.00446124      -0.11908587      -0.40741047      -0.54949062      -0.90027189      -4.82623871
C        0.07451773       1.38743663      -2.96311378       0.11496364      -0.10025816       1.18616748       0.02473567      -0.53252966       0.04417206      -0.45177659      -0.14383390      -0.37315994      -0.12019750      -0.06565368      -0.02269918      -0.24914946       0.00882211       0.08346341       1.12721388      -4.90368264
C       -1.11613929      -0.74662960       1.91425276      -0.41661978       0.31255928      -0.13847885      -0.02574666      -0.10083318      -0.03101670       0.03368595      -0.08521271      -0.32153708       0.01562194       0.07317063      -0.05835427      -0.58202514      -0.43057403       0.29794213      -0.06013993      -5.19635066
C        1.80186558       1.03487635       0.04801011      -0.91774863      -1.04282713       0.59188694      -0.01996300      -0.43036491      -0.15243059       0.09998970      -0.15188230      -0.28757439       0.08012122       0.08483857       0.06022370      -0.12793511      -0.95847982      -1.09586218       0.64945690      -4.97197648
N       -1.26480746       0.83037788      -3.32556844       0.94368124       0.92667603      -1.98826730      -0.04764923       0.32975393      -0.00330606       0.28777202       0.08945323       0.47317368       0.05647403       0.09215478      -0.11713717       0.49830361       1.02889272       0.92214523      -2.06079586      -3.65346491
H        1.59065795      -1.53950453      -0.18476203       0.46712300       0.20884380      -0.67728132      -0.18017067      -0.26366173      -0.00305740       0.02744175      -0.00696484      -0.19762135       0.02171843       0.05900353      -0.01204503      -0.28535219       0.51246474       0.21391444      -0.64514274      -3.57862142
H       -0.43100780      -1.18824267       3.84215665      -0.20696495       0.05344600      -0.15338443      -0.19851698      -0.29923751      -0.00070335       0.05160956       0.02979889      -0.22141048       0.05970906      -0.04785287       0.03743430      -0.18339474      -0.20044252       0.11079828      -0.17335642      -3.56154683
H       -0.36001492       0.72191578      -0.04145491       0.10459923      -0.06378949       0.15844181      -0.16536501      -0.40685629      -0.07744447      -0.18259410      -0.09392119      -0.20594494      -0.08556955      -0.16985227      -0.09304911      -0.25726952       0.14783972      -0.04845005       0.17925449      -3.73974900
H       -2.90919876       0.12073320       6.05205202      -0.02929204      -0.12305050      -0.23521446      -0.04727603       0.03126706      -0.02990158      -0.05656713      -0.03264044       0.01804085       0.02759128      -0.05765460       0.02208534       0.09635675      -0.02627262      -0.11461180      -0.23410653      -4.00904459
H       -2.32297039      -1.57493806       5.93376541       0.32012662       1.09505141      -0.44201204      -0.04955467       0.01020272       0.02560496      -0.08604925       0.01035183       0.07673385      -0.02562888      -0.01455762      -0.05403118       0.01554629       0.32312936       1.08823948      -0.43887161      -4.03161425
H       -1.17355800      -0.14902425       5.88104057      -0.29691362      -0.40214226       0.11212722      -0.04948586       0.08113136       0.02784789      -0.01726718       0.01808819      -0.00795510       0.03759310       0.04546981       0.01355218      -0.04463165      -0.30973539      -0.40224547       0.10536006      -3.96763213
H        3.44438457      -1.80908656      -2.56875920      -1.00219095      -0.34785914       0.83368582      -0.03908968       0.05269593      -0.01877842      -0.06314768       0.00545873      -0.04737739      -0.01980542      -0.07038069       0.01847861       0.06464621      -1.01533047      -0.33645256       0.82486654      -4.00401336
H        1.85669017      -2.74378824      -2.38622808       0.60957390       0.58418977       0.28152305      -0.05122554      -0.02317824       0.06030022       0.04716550       0.04540526       0.02327784       0.04149296       0.04500462       0.03357323       0.00149369       0.63002251       0.57903470       0.24524826      -4.02965062
H        3.19607496      -2.99758768      -1.25026858       0.18423350      -0.14329788       0.01828695      -0.05840469      -0.01053215      -0.04547219       0.01720452      -0.04842550       0.07270566       0.00851019       0.00775548      -0.00664364       0.00395834       0.18980456      -0.15435262       0.03373458      -3.97887090
H       -0.25080836      -2.86974049      -0.19840431       0.13976829      -0.07918371      -0.55105239      -0.05628153       0.08220544      -0.09497089      -0.04016033      -0.05514921      -0.00573944       0.02424015      -0.02086920       0.00945101       0.02778481       0.13205820      -0.12704101      -0.56246524      -3.92039453
H       -1.94934726      -3.23467016      -0.45536762       0.17757246      -0.02445137      -0.12724240      -0.05596853       0.03545012       0.08835223       0.03742946       0.10054335       0.13437837       0.06782682       0.03527285       0.05540703       0.05243449       0.16210652      -0.06464164      -0.10530616      -3.92044971
H        1.28519177       4.17285681      -1.43803501      -0.05771674      -0.38531011      -0.38429254      -0.05739243       0.00357531      -0.00325261       0.03315498       0.05015903       0.16998444      -0.01297230       0.00146444      -0.05262068       0.02898222      -0.06034986      -0.38056440      -0.35812304      -3.78741094
H        2.07815075       2.94883275      -2.38565087       0.17818014      -0.23374115      -0.20964617      -0.05584469       0.06221439      -0.05681860      -0.00955588      -0.03471905      -0.10740253       0.05197729      -0.03660448       0.01975632       0.10437132       0.16636878      -0.25952233      -0.18574351      -3.97975681
H       -0.72051311       2.55749464      -1.30786991      -0.09249642      -0.10881861      -0.54064399      -0.05623996       0.06113258       0.03388150      -0.05045650       0.02382700      -0.01500425      -0.03799565      -0.06885121       0.08310819      -0.04110880      -0.01417558      -0.13759439      -0.54590296      -3.95396433
H       -0.47801462       3.47585320      -2.80888033       0.02656885      -0.01860724       0.03151765      -0.06510230       0.04981561      -0.05514684       0.03923974      -0.05340792       0.04526497      -0.03102877       0.05443988      -0.04327209       0.03327984       0.02752010      -0.06546716       0.01336276      -3.96360023
H       -2.58322906      -2.29519629       1.44229102      -0.17701560       0.46109170       0.57484180      -0.06113585       0.08661860      -0.00607178      -0.04984105       0.08021389       0.06006471      -0.01537235      -0.00938484       0.07624833      -0.00146346      -0.16745212       0.43158812       0.57621965      -3.92965255
H       -0.99267679      -2.89221644       1.82228112       0.03374067      -0.07396346       0.60519719      -0.05908247      -0.01828256      -0.02808729       0.03644275      -0.05489609       0.05647122      -0.01837405       0.08303960       0.09493522       0.07173020       0.05144004      -0.10182381       0.56926553      -3.85813470
H        1.13392353       3.01024580       0.45307750      -0.30695879      -0.10763597       0.49986061      -0.05830342       0.02131260      -0.04029867      -0.03972438      -0.03576826       0.02557820       0.01175832      -0.04155180       0.03664110       0.06343237      -0.30461766      -0.04400120       0.52581369      -3.83553786
H        2.74548602       3.00144243      -0.10579988       0.26280460      -0.37465528      -0.02310106      -0.05780938       0.06412133       0.01808577       0.03199904       0.05534527       0.02537499      -0.03324848       0.06191786       0.00233920      -0.00002544       0.27833030      -0.39381695       0.01382654      -3.92069896
H        0.53554493       0.67318970      -2.26666689      -0.42670378      -0.13337065      -0.62475389      -0.05228548       0.00478125      -0.06050370       0.06361101      -0.05327003      -0.08971479       0.09522056       0.02614841      -0.03591165      -0.00567092      -0.43040985      -0.13230752      -0.54038551      -3.94434128
H        0.76013869       1.48127770      -3.80099201      -0.40625682      -0.03756702      -0.23116913      -0.06575721       0.02148878      -0.02892311      -0.01681240       0.00429920      -0.02585480       0.04965083      -0.07313139      -0.01614341       0.11681016      -0.37167862      -0.04874273      -0.23381565      -3.96957037
H       -1.77723646       0.02212876       1.55254149      -0.38525924       0.08716200       0.00188337      -0.03629437      -0.02820347      -0.03068894       0.10347525       0.01787610       0.10618974      -0.05308767       0.03520233      -0.01049580      -0.00947055      -0.43306425       0.09467681       0.01601343      -3.82398292
H        2.42739201       0.99939734       0.91603619       0.28871107      -0.34002170       0.64917231      -0.05097427       0.07663600      -0.02734209       0.03779623       0.00148759      -0.01877185       0.02853524       0.05170406       0.00410040       0.01007464       0.28873034      -0.31663776       0.63438074      -3.70417682
H       -1.78495622       0.73584551      -2.47586775      -0.89863318      -0.17045049       1.51383233      -0.11707299      -0.13091038       0.04193982       0.02458075      -0.02727438      -0.26629391       0.14427980       0.04249981       0.22269243      -0.61423778      -0.94999332      -0.17562273       1.50644674      -3.56122217
H       -1.14835179      -0.14265236      -3.57167387       0.19576345      -1.12740648       0.02834009      -0.13824190      -0.11167629       0.12680232      -0.03167730       0.11719575      -0.50089719       0.08902168      -0.02545077       0.18274053      -0.37476796       0.09265940      -1.16671700       0.03310477      -3.44148937
H       -1.76742721       1.32629204      -4.07083941       0.34398293       0.01120000       0.52943993      -0.18761462      -0.19048149       0.07826411      -0.14662609       0.05898455      -0.24491306       0.09279293      -0.06909583       0.09351218      -0.36279853       0.35274692      -0.01505776       0.54449369      -3.47445037
48
Properties=species:S:1:pos:R:3:original_dataset_forces:R:3:LES_q:R:1:LES_BEC:R:9:forces:R:3:energies:R:1 original_dataset_energy=-209.44203186035156 energy=-209.45205114994934 stress="inf inf inf inf -inf inf inf inf -inf" pbc="F F F"
O       -1.32990634      -3.97310185      -0.38032639       0.34183508       0.95483220       0.35578847       0.31718042       1.21478958       0.34531094      -0.06459664       0.17473098       0.72831744      -0.12851540       0.05864610      -0.18312109       0.56894597       0.33793232       0.88835697       0.35071946      -4.42110830
O        1.51492000       0.08362901      -1.48900986       0.89341950      -1.39493096       2.61891413       0.27675399       0.59514336       0.18197751       0.33959293       0.36273289       1.06900089      -0.02792405       0.10331822      -0.22687743       1.48169748       0.99396301      -1.30181344       2.72537418      -4.67625731
O       -2.53635478      -0.34897259      -0.73896581       1.40243220      -0.49386379      -0.44625574       0.28135306       1.29171740      -0.05206153       0.36913283      -0.23605347       0.46584563       0.07299438      -0.01300516       0.10212496       0.59773641       1.30415478      -0.48488187      -0.42137294      -4.68090967
O       -2.35913968       0.00182873       3.52764273       0.99322921      -0.16538565      -1.56910264       0.29858398       0.58466210      -0.13919272      -0.44549887      -0.00858005       0.80008352       0.19440166      -0.43022179       0.39029107       1.14174447       1.04856003      -0.14888107      -1.59955905      -4.60581812
O        1.30555153       1.05604577      -3.37086439      -1.09402835      -1.76602376      -1.16214991       0.29810464       0.52901668       0.42607165      -0.11549230       0.32087294       1.43136056      -0.57882189       0.06238152      -0.19527228       1.12425487      -1.07180397      -1.78273466      -1.13369576      -4.50780720
C       -0.14790517      -3.58036923      -0.35108155      -4.38933849      -4.35295868       0.77581614      -0.06293064      -1.23666711      -0.41990762       0.11884281      -0.39340017      -1.14022656       0.55617191      -0.00141361       0.64522795      -0.53670415      -4.43231892      -4.45282821       0.72358598      -5.91798206
C        1.02529216       0.06500548      -2.61453557       0.68436873       2.67762423      -1.30030119      -0.09388403      -0.63332640      -0.53399269      -0.37976634      -0.59045615      -1.30183345       0.64691201      -0.27134913       0.48580637      -1.83360471       0.61038209       2.78174575      -1.37409276      -5.55204039
C       -1.34009790      -0.64329112      -0.68648231      -1.05461037      -0.18470748      -0.03009325      -0.09496938      -1.51653718      -0.01343316      -0.49790528       0.15467392      -0.34584109      -0.46982568      -0.28460600      -0.47527188      -0.98752159      -1.08814921      -0.12594819      -0.09691532      -5.51571561
C       -1.81259084      -0.43953842       2.49428034      -1.93609822      -0.84455329       2.46229601      -0.10083621      -0.35864708       0.02844672       0.51470227       0.06380256      -1.44470403      -0.43931002       0.48024919      -0.36918392      -1.06089865      -1.89434487      -0.82315025       2.46823677      -5.51780991
C        1.44715309       3.69536257      -1.52267802      -0.56644326       1.46688902       4.04264545      -0.02735271      -0.14797020       0.65299667      -0.12641368       0.44002350      -1.59788492       0.09411850      -0.04835160      -0.01827119      -1.61415154      -0.60842733       1.37343340       3.97196168      -5.81614949
N        1.01583982       4.86114740      -1.05995810      -0.77452451       2.31460834       2.79504204       0.07255187       0.10018103      -0.30796875      -0.03696504      -0.05112580       1.08658713       0.00660000      -0.08188936       0.01424491       0.52053469      -0.82284838       2.36675657       2.59457558      -3.70235032
N       -1.89216423      -1.76748896       2.18243694       2.03799081       2.48202991      -1.33094871       0.11194454       0.21040792       0.12113728      -0.09081169      -0.01429800       0.97678255       0.25349317      -0.18460345       0.03246895       0.41133915       2.05182553       2.60604915      -1.43172634      -4.77685523
N        1.82854652       2.71588922      -0.74137580       1.23540032      -2.69765615       0.57252544       0.09018397       0.12950051      -0.39188545       0.08703307      -0.03149329       0.99090508      -0.44270615      -0.05045379      -0.46357017       0.91963567       1.32464667      -2.79345102       0.87414749      -4.20955840
N        0.26634645      -2.57742429      -0.99973130       0.68148553       4.51252890      -3.16538739       0.03628623       0.51240370       0.02271032      -0.00056507       0.14065809       1.21323377      -0.25268601      -0.07154506      -0.67792640       0.42932554       0.66675663       4.50923271      -2.99445674      -4.72060968
N       -0.55472416      -0.15945745       0.31891763       0.13969614      -0.14768824       0.68819863       0.12456033       0.70175972       0.05852506       0.14237315       0.11250216       0.41147896       0.38948410       0.24597809       0.36153622       0.93217085       0.13259212      -0.15288607       0.81181383      -4.56495485
N        1.43844771       3.54012680      -2.75047255       0.43836161      -0.02131637      -5.98451471       0.05374826       0.10410422      -0.14940325       0.02698269      -0.02833340       0.81915725      -0.01100526       0.02492017       0.20424396       0.90126770       0.34860097       0.03359425      -5.71614138      -3.86275013
C        0.79275066      -4.33249664       0.41496885       0.80650324       0.10080814       4.05902052       0.08165924       0.00716502      -0.16333066       0.10300327      -0.03258515      -0.17847945      -0.07581691       0.10505728      -0.09453352      -0.06852380       0.90671224       0.07039698       4.03942296      -4.49269013
C       -2.53347993      -2.80982494       2.89289904       0.57410234       0.06868133       1.91936040       0.08659115      -0.14046275      -0.05256597      -0.02013333      -0.13493167      -0.38130375       0.15222157       0.12010905       0.20822045      -0.27015429       0.52209520       0.06379242       1.97096854      -4.85019859
C        1.76663756       2.34715629       0.71410847       1.06060970       3.15618110      -1.16330230       0.03319294      -0.19709670       0.05149078       0.03348330      -0.01931594      -0.21310846      -0.01566355       0.11087197       0.14650302      -0.47137755       0.88654336       3.05487114      -1.36229372      -4.92473457
C        0.36945504       2.38846898       1.19084215      -0.61472899       1.99667680       0.42926547       0.07240064      -0.07053047       0.18852835       0.07305600       0.08101187      -0.03180126       0.08632535      -0.08641662      -0.00049237      -0.15848937      -0.44961505       1.97515654       0.66666219      -5.04836947
C        0.05035931      -1.03202724      -2.95225215      -1.68067181      -0.05913783       0.62294447       0.06570534      -0.00396832       0.11358571       0.02163657       0.13363673      -0.00698033      -0.08001468      -0.00337897       0.12683688       0.16542151      -1.63689975      -0.08396158       0.38106657      -4.57793467
C        0.07153010       1.32417107       2.13806152      -1.12901020      -3.36853695       2.30673528       0.09589083      -0.05513580       0.02387754      -0.04634645       0.01868901      -0.12388601      -0.09170736      -0.03182640       0.02110143      -0.00061011      -1.00276460      -3.33500461       2.13951727      -4.60286456
C       -0.67269611      -1.68541932      -1.67995501       0.55981261       1.30699456      -1.54847324      -0.00510027      -0.29716479       0.04797218      -0.13613063       0.08726290      -0.36167453       0.22106727      -0.14984905       0.04610628      -0.59446813       0.49743506       1.40865578      -1.39039558      -4.79771877
C       -1.13427305       0.51898712       1.53169608       1.95134842      -1.05032694      -0.84580415      -0.03630666      -0.30017447      -0.00892395      -0.04225031      -0.07712928      -0.28519697      -0.16514475       0.04984883      -0.27843659      -0.61881442       1.74989517      -1.13252939      -0.92066823      -4.98669833
H        0.85795516       4.87297821      -0.04980642       0.14034043       0.44593346      -0.80024898      -0.16699265      -0.18007847      -0.06132153       0.03944756       0.01955782      -0.10054520      -0.01173153       0.06081313       0.16217370      -0.35174263       0.11469747       0.45937477      -0.76164815      -3.51039358
H        0.91568226       5.76657248      -1.55135405       0.23748687      -1.60386491       0.30277592      -0.16117032      -0.14580294       0.04987107      -0.02062284      -0.05739806      -0.46439356       0.12979892      -0.02838863      -0.02254325      -0.14795144       0.26986427      -1.58445110       0.33995228      -3.61773576
H       -1.27594709      -1.98001313       1.41845036      -0.37216082      -0.53126550      -0.15806590      -0.17352532      -0.15581970       0.08787158      -0.02192372       0.09638518      -0.11902402      -0.11164827       0.05042561      -0.02725865      -0.29001660      -0.32679989      -0.59208360      -0.18737870      -3.60764213
H        1.92868590       1.81355095      -1.26186800      -0.11904122       0.39977440       0.22411543      -0.11150055      -0.05756890       0.04990177      -0.06091687      -0.33012077      -0.93244122      -0.02373596      -0.08937149      -0.26578394      -0.12975717      -0.04371608       0.47814721       0.08510392      -3.73383568
H        1.21121144      -2.53505921      -1.32444692       0.39338884       0.34500593       0.43490443      -0.19835930      -0.25656711      -0.03619375       0.11947780      -0.04487471      -0.37962454      -0.11901795       0.04642327       0.04723326      -0.10850517       0.42077269       0.31562371       0.38780957      -3.54569914
H        0.46686023      -0.28256834       0.24043429      -1.09392476       0.07490816      -0.05851251      -0.17686436      -0.36580115      -0.00833849       0.10998997      -0.01914004      -0.21030941       0.03109976       0.13685157       0.01462017      -0.31458627      -1.03190932       0.09375419      -0.00120006      -3.71640639
H        1.63674998       2.61648321      -3.07788324       0.09845598      -1.46829844      -0.75968379      -0.04182617      -0.07309622      -0.07127892       0.02052464      -0.12191473      -0.74919871       0.04541000       0.04242705      -0.07949793      -0.11026827       0.10485338      -1.68129535      -0.75213991      -3.80008980
H        1.06059456       4.17723799      -3.43472886       0.02762537       0.05064627       0.59558529      -0.15975513      -0.17385317       0.03203155      -0.04298817       0.01758385      -0.25192851       0.09549021       0.01561517       0.16367158      -0.30738186       0.04193890       0.10384002       0.55504370      -3.54007615
H        0.24437726      -4.99553680       1.13969803       0.72710830       0.31971097      -1.20907485      -0.04408951       0.00310518       0.05538590      -0.03601296       0.01501401       0.04680603      -0.04721728      -0.02965343      -0.08236243       0.05177252       0.72073161       0.31745061      -1.18582878      -3.91019512
H        1.53070569      -4.79830694      -0.16571963       0.93707198      -0.95204139      -0.68645191      -0.05855270       0.00531313       0.06183986      -0.05557097      -0.01270865      -0.05570279       0.02129122      -0.05146619       0.09700180       0.01079133       0.87898209      -0.91039147      -0.70271681      -3.98146235
H        1.30433154      -3.58321977       1.06853831       0.04881075      -0.64656460      -0.39105713      -0.04468682      -0.02157907       0.08921392       0.01160478       0.02225350       0.09503176       0.01773887       0.00732023       0.06584352       0.00019223       0.05757614      -0.63184520      -0.39284172      -3.78360998
H       -1.97099042      -3.71577525       2.67617869      -0.50542611      -0.17438897      -0.17176111      -0.05436279      -0.02801173      -0.04172008       0.01458788       0.04076062       0.13560375      -0.06368134      -0.01588116      -0.02850297      -0.01798320      -0.49392726      -0.20159282      -0.17633823      -3.97317679
H       -2.39636397      -2.63069367       4.00960922      -0.65481490      -0.14181422      -1.37829661      -0.04348120      -0.04373032      -0.03151729       0.04387798       0.02150926      -0.00889272      -0.00683669      -0.05259420      -0.05368524       0.13006072      -0.68227231      -0.15747066      -1.39559080      -3.94652828
H       -3.57013106      -2.84376836       2.57607555      -0.14817147      -0.44268829       0.38655791      -0.06299533       0.07594144       0.04782117      -0.00695984       0.03667546       0.02898797      -0.05419522       0.03334306      -0.00277998      -0.03012280      -0.13486669      -0.44760281       0.43001722      -4.00962167
H        2.39729285       3.05891609       1.33085513      -0.57884157      -0.70024389      -0.80169588      -0.06482238       0.10033943       0.12730419       0.06394688       0.07208007       0.05448726       0.04131806       0.10052035       0.13423993       0.01037602      -0.51894889      -0.67239246      -0.87309861      -3.87229244
H        2.23185802       1.39702296       0.83915222       0.16227651      -0.68739551      -0.48204935      -0.05989846       0.06648934       0.01635094       0.02533022      -0.08121374      -0.00186937      -0.07026856      -0.05203483      -0.07785016      -0.01052551       0.17853240      -0.61602682      -0.39406968      -3.92229141
H       -0.40889889       2.39687490       0.43839407       0.49896401      -0.29252219      -0.73076320      -0.05638111       0.00776393      -0.17971897       0.00322770       0.01295857      -0.11285086      -0.02614860       0.06520765      -0.00868215       0.01918808       0.45718793      -0.20272454      -0.77739383      -3.75476447
H        0.20146596       3.36056376       1.65285206       0.03822290       0.14329021       0.31636718      -0.06261388      -0.01940577      -0.11556806      -0.08036456      -0.00142612       0.20874998       0.09883360      -0.00784373       0.02821986       0.02030916       0.02431554       0.07946189       0.20493236      -3.72387636
H       -0.76679033      -0.68385440      -3.61240315       0.59336686       0.20991185       0.38896796      -0.05061722       0.05122085      -0.03430429       0.02912632      -0.00349157       0.02264234       0.01908342       0.07479386      -0.01184821       0.18071232       0.55887361       0.23676327       0.38755412      -3.95681768
H        0.46513492      -1.86828876      -3.49685287       0.54580986      -0.08164540      -0.10163490      -0.05190136       0.02458468      -0.02689012      -0.04278648      -0.04756833       0.06781596       0.07621537      -0.04379568       0.10674900       0.13753342       0.57172213      -0.07902561      -0.06513931      -3.94716705
H        0.94159967       0.60538930       2.38017011      -1.16659772       0.94900531      -0.83786780      -0.04749697       0.05436488      -0.06222903       0.04706193      -0.05786189       0.08525399       0.01638777       0.03451505      -0.04619649       0.01386669      -1.21258048       0.89170454      -0.88396567      -3.90025563
H       -0.22302037       1.60374665       3.15204954      -0.13797264       0.44854537      -0.28845316      -0.05203047       0.02044001       0.00824168      -0.01718352       0.02699510      -0.00531844      -0.02293745      -0.00047835       0.04840884       0.15736200      -0.17500158       0.46782449      -0.22940325      -3.96180479
H       -1.45915484      -2.21246409      -2.23159742      -0.10563120      -0.22888120       1.14149129      -0.04729234       0.07951516       0.02823766      -0.01038951       0.03965235       0.02450453       0.00718645       0.03498309       0.06933220       0.07481015      -0.05226214      -0.26027190       1.12372929      -3.78762661
H       -1.90270138       1.21180868       1.21603918      -0.12670729       0.07874236      -0.03703273      -0.05137518       0.00906659      -0.01495574       0.04055252      -0.11660242       0.04238385       0.06291701       0.01579819      -0.03225807       0.03311036      -0.10268664       0.07925834      -0.01212365      -3.83641446
46
Properties=species:S:1:pos:R:3:original_dataset_forces:R:3:LES_q:R:1:LES_BEC:R:9:forces:R:3:energies:R:1 original_dataset_energy=-199.6240997314453 energy=-199.64005296795503 stress="-inf -inf -inf -inf inf inf -inf inf inf" pbc="F F F"
O        4.08257055      -2.52631378      -0.86196744      -1.35679996      -0.34190804      -0.97419012       0.29437861       1.42411797      -0.11579919       0.06639405       0.25685725       0.65373403       0.21500842       0.35380926       0.14587249       0.42682565      -1.39088701      -0.32186246      -0.99117780      -4.63916371
O       -0.24678269       4.48878860       0.37686956       0.33041111      -1.33652318      -1.90499067       0.39538440       0.66029494      -0.40020208       0.01481426      -0.38198809       1.56413943       0.16404882      -0.14589748       0.63149015       0.96830510       0.28767700      -1.28309029      -1.91839185      -4.45169997
O       -2.25449467       1.82422233       0.27097094       0.58106250      -0.43134761      -1.29130220       0.19605798       0.68722602       0.02915425       0.10017609       0.27905349       0.60144890       0.33702742       0.25583348       0.52394518       1.27276043       0.66879248      -0.44795157      -1.37031084      -4.74785177
O       -0.49055529      -1.41842914      -1.75378036      -1.93028319      -1.16222525      -0.63346297       0.25091109       0.83211628       0.22643719       0.23668967       0.11293215       1.16357989       0.19826811       0.27247461       0.15506709       0.53256311      -1.88405998      -1.17192836      -0.56496578      -4.71266225
O        0.97739929       2.62902617       0.25159633       0.17804477       0.40625691      -0.57591385       0.31539020       0.83209737      -0.40760315       0.00078001      -0.38195374       1.16907801       0.08160366       0.19953785      -0.05448209       0.97167024       0.19923273       0.32842313      -0.58304037      -4.60943138
C        3.05285144      -3.04650998      -1.32438254       1.56659758      -0.49791887       2.31905174      -0.07150850      -2.17302219       0.43036110      -0.01042593       0.11863154      -0.97601493      -0.43379879      -0.21046184      -0.39096816      -0.30781226       1.56347556      -0.50975760       2.32992982      -5.68533486
C        0.16756764       3.48025203      -0.26792312      -0.03637479      -0.58211493       2.62520289      -0.06899527      -0.85676658       0.79810187      -0.33025379       0.73126380      -1.96653580      -0.34626796      -0.28449794      -0.54078340      -1.12880789      -0.02584622      -0.52675637       2.53638940      -5.47320807
C       -2.10608315       1.24230194      -0.83792126       0.59006977       1.94535196       2.96365714      -0.08430818      -0.93720052      -0.43800841       0.08797239      -0.53793599      -0.86738553      -0.60564727       0.04888599      -0.66400224      -1.15636092       0.58195798       2.05894398       3.06295896      -5.44851283
C        0.31083685      -0.63847172      -1.31572461       1.75590634      -1.15003097       1.02059257      -0.05322463      -0.85584665      -0.25935735      -0.57679567      -0.05742723      -1.83644956      -0.02744787      -0.47169054       0.02734357      -0.40386684       1.72506818      -1.11644333       0.92452748      -5.68048638
N       -2.98424101       0.36535877      -1.21699488       1.94629717       0.47295401      -2.92849493       0.06484482       0.59009495       0.49351184       0.02252409       0.22543365       0.55264318       0.23899796      -0.20029897       0.21177391       0.41044755       1.99548427       0.32021667      -2.98166421      -4.89951001
N        0.28444526       0.64820910      -1.52599084       0.63025093       3.82581306       0.61990392       0.08769618       0.58388513      -0.09751345       0.20564459      -0.01590880       1.23058281      -0.07400208       0.10027595      -0.10908621       0.27315834       0.48989642       3.93427749       0.59156485      -4.40004103
N        1.81318569      -2.53872108      -1.13484430       1.26931906       0.71849442      -0.37359378       0.09544735       1.18309193      -0.31676437      -0.04841581      -0.48299671       0.58816270       0.19587115      -0.24394809       0.31954300       0.46751490       1.13647379       0.85699843      -0.37165606      -4.53242160
C        3.11923671      -4.47724295      -1.92476308       1.76141715      -0.26748964       1.34886134       0.09115404      -0.11637673       0.06382503       0.03857761      -0.01811650       0.11957303       0.15488220       0.02636945       0.10552260      -0.07830154       1.76661951      -0.27311739       1.40619188      -4.31920984
C       -4.24342728       0.07928950      -0.70929480      -1.38791490      -0.87839717       1.83869779       0.08131720      -0.41176970      -0.08622390       0.08431845       0.14275623      -0.14350970       0.03408183       0.21791664       0.01953080      -0.14782320      -1.33315535      -0.85970408       1.75718570      -4.95256200
C       -0.01943646      -0.72766638       1.69832325       1.50895047       0.38349447      -0.14677714       0.10924407      -0.16035166       0.01865176      -0.12134999      -0.00984464      -0.18127460      -0.01837339      -0.00134187      -0.07407578      -0.07745859       1.59256493       0.22991197      -0.30516488      -4.58928252
C        0.86686736       0.19143295       2.60921979      -0.42790973      -1.05658424      -2.43334889       0.10670317      -0.11538944      -0.05094146      -0.09829522      -0.00968274      -0.03336172       0.12492212      -0.01536742      -0.04517866      -0.25333592      -0.46113875      -1.05563738      -2.36779535      -4.70445843
C       -0.45433289       2.99526405      -1.57792473      -0.33807197       1.47837138      -2.03224778       0.05702751      -0.05482024       0.17228741       0.02710145       0.08633784       0.00632362       0.04836097       0.09704996       0.12481680       0.03749523      -0.35549760       1.49122513      -1.96001667      -4.66396171
C        0.83110243      -1.80686140       0.89830792      -1.25533748       0.94464558       0.19360667       0.10434820      -0.09156334      -0.00489035       0.05325772       0.04384165      -0.11891497      -0.02994140       0.06799623       0.01806229      -0.11209576      -1.20948939       0.99461058       0.29970901      -4.39110248
C        0.11433142       1.32858968       3.29379106       1.60347092       0.91563141       1.13759339      -0.01346022      -0.33470022       0.24115192       0.06238098       0.19420772      -0.49637107       0.01024213      -0.06953712       0.32498749      -0.11915129       1.66179876       0.81449271       1.08133551      -4.75239667
C       -0.91144192       1.56460047      -1.77922869       1.05721056      -1.91069078       1.14164054      -0.02293185      -0.49061564       0.20600078      -0.08678629       0.05384230      -0.38614773       0.01402475      -0.02247489       0.02381906      -0.05669817       1.15326622      -1.94022219       1.25933662      -4.98607725
C        1.47072124      -1.26101255      -0.43096280      -2.00060725      -2.96715999      -0.65169078      -0.02661370      -0.12726889      -0.00335905       0.16545581       0.06566067      -0.42132919      -0.08545291       0.20825384      -0.14629482      -0.33622270      -2.07285095      -3.12731675      -0.55349790      -4.93209500
N       -0.62008590       2.32802081       2.35205078      -2.64295006      -3.54533005       4.04645300      -0.04105898       0.40651273      -0.28607808      -0.17571838      -0.14901161       0.55792928       0.27825512       0.15044662      -0.21573884       0.19957922      -2.61967719      -3.50827821       4.05039799      -3.64426240
H       -2.68250656       0.00623238      -2.10571432      -0.67873812      -0.81132162      -0.17179632      -0.19335216      -0.17760803       0.05229090      -0.00505969       0.02873439      -0.17927605      -0.04145121      -0.06602405      -0.02248995      -0.29611280      -0.75923515      -0.82810241      -0.13125490      -3.46903121
H        1.07714891       1.22710395      -1.17059302      -1.04942477      -0.74398351       0.23560363      -0.17731927      -0.17912944      -0.16726655       0.06075670      -0.13635843      -0.23745734      -0.14497143      -0.03393737      -0.26836247      -0.28123527      -0.94745924      -0.81589053       0.20045124      -3.57254387
H        1.11612892      -2.98366475      -1.67878485      -1.05096614       0.02562752      -0.09979657      -0.18862370      -0.31700372       0.06783120      -0.01447286      -0.03157740      -0.16198910       0.00698567      -0.04726656       0.01458514      -0.21202538      -1.01789551       0.07089945      -0.14849738      -3.54868035
H        2.21665883      -5.08766556      -1.84652090      -0.04611694       0.50057673      -0.60235000      -0.05206700       0.04645916       0.07511400       0.02042868       0.05431371       0.05948242       0.00519133       0.01706559      -0.01990378      -0.03171125      -0.04891371       0.53312636      -0.58572883      -4.12359935
H        3.56044650      -4.30203390      -2.89004779      -0.44395620      -0.47465020      -0.83698237      -0.05414766       0.04336951      -0.07479519      -0.08432569       0.04181212      -0.06122918      -0.02967782      -0.07320201       0.08018201       0.10585789      -0.43667954      -0.47429160      -0.85655107      -3.95016715
H        3.93924809      -5.11975908      -1.40577912      -1.37373948       1.55625153      -0.47983006      -0.03256659       0.10943441      -0.13816504       0.00337242      -0.10593492       0.14796089      -0.00234219       0.06139318      -0.07817492      -0.00843241      -1.38301158       1.57562880      -0.49341068      -3.92242739
H       -4.51906061       0.64375514       0.20828229       0.63566852      -0.23949729      -0.79264981      -0.04059817       0.08484915      -0.04839367      -0.01402268      -0.09259352      -0.01061455       0.02128771      -0.16711487       0.02561328       0.02929604       0.61192394      -0.23802040      -0.76967030      -3.97960808
H       -4.17368793      -0.97141945      -0.45407254      -0.78477383      -0.30787474       0.25680441      -0.05486758       0.06787700      -0.00101901      -0.00065403       0.01833215       0.03899793      -0.02105021      -0.03877011      -0.01445905      -0.02211952      -0.82696802      -0.28276745       0.25923228      -3.82598754
H       -5.01001406       0.23206872      -1.44609451      -0.33616826       0.03736066      -0.33976623      -0.05957904       0.10529106       0.00919470       0.03129342      -0.02552537      -0.02270727      -0.01259866       0.05393671      -0.00163670       0.00828471      -0.32334681       0.04176459      -0.32613969      -3.96264741
H       -0.65669572      -1.30866683       2.31748796      -1.11990035      -0.15178400       0.42270958      -0.07181703       0.06577439       0.01164308      -0.04155778       0.04029070       0.01914388      -0.00535293      -0.05820120       0.02165423       0.00093591      -1.11368409      -0.05800477       0.41312342      -3.95881812
H       -0.56217813       0.00998905       1.05302787       0.18080047      -1.32024848       0.23447429      -0.04220362       0.02719267      -0.06208729      -0.01264661      -0.05368110       0.00177267      -0.07743831       0.00873819      -0.04462438      -0.02462327       0.16566268      -1.41354246       0.20041245      -4.12897194
H        1.47515225      -0.41726494       3.25864577      -0.44100729      -0.07084617       1.06146026      -0.05814247       0.09397728      -0.07068705       0.09235915      -0.06643503       0.08281371      -0.00269479       0.06818788       0.00640514       0.10325203      -0.45204405      -0.11274749       1.06351037      -3.93053256
H        1.64653611       0.46273065       1.90664768      -0.00321006       1.26944435      -0.01317160      -0.05538935       0.09902549       0.06752498       0.05396008       0.02009586      -0.02644541       0.01917660      -0.06597108       0.04893713       0.02958287       0.00867963       1.32826269       0.03062240      -3.82762220
H       -1.33967328       3.61804557      -1.68416870      -0.05489451       0.06420037      -0.33737805      -0.04948246       0.06614635      -0.05594031       0.01297125      -0.03015640       0.05590959      -0.00535686       0.00419472      -0.00710746       0.00573654      -0.04617483       0.00970825      -0.31537786      -3.83099392
H        0.17731705       3.17663407      -2.49508715      -0.27475545       0.26624471       1.19415057      -0.04910126       0.03664701      -0.06032699       0.00691992       0.01448116      -0.03198174       0.02181777      -0.05486290      -0.03696381       0.08373872      -0.26742198       0.29157585       1.18934037      -3.86961112
H        0.21762851      -2.72177863       0.71755826      -0.14439021       1.19750738      -0.69096750      -0.04014454       0.03027037       0.03588244      -0.01157266       0.04130334       0.15748843       0.01404878      -0.01737407       0.04476445       0.00145649      -0.13827358       1.20830848      -0.64177806      -3.88416961
H        1.54155684      -2.32261586       1.53565073       0.82227057       0.77967405       0.20597471      -0.05656635       0.05087617      -0.02021365       0.01295979      -0.07395325       0.06542889      -0.05783155       0.06425057      -0.08020660       0.05239778       0.83128418       0.79843953       0.10750017      -3.95560603
H       -0.45280206       0.91837341       4.15018988      -0.63665891       0.48119622      -1.01605904      -0.06751586       0.00984887      -0.02928330      -0.07932821       0.01565016      -0.02486474      -0.05365797      -0.08170806       0.00779817       0.11672972      -0.63219062       0.52564365      -0.99529358      -3.95143082
H        0.92377561       1.88640785       3.81812191      -0.77248722       0.17488916      -0.52768505      -0.06101167       0.03183115       0.01581292       0.01755684       0.00514934       0.04518112       0.04788638       0.04536312       0.03841865      -0.00023548      -0.78661185       0.20517510      -0.56173475      -3.79931815
H       -1.17680645       1.37433767      -2.81326413      -0.39413729       0.30124944      -0.09630615      -0.06238041       0.04603763       0.01247630       0.02690292       0.01970767       0.02819981       0.07199081       0.06196195       0.04329946       0.07308938      -0.44079943       0.30928413      -0.14800977      -3.87864580
H        2.34840703      -0.69423163      -0.29221559       0.81766886       0.73663044       0.10213958      -0.06042604       0.07769564       0.06840906       0.00572227       0.03580977       0.02168664      -0.00450907      -0.02827063       0.01496141       0.03943504       0.86835395       0.68958361       0.16670303      -4.04608901
H        0.00386959       2.71079898       1.76718068       3.84568572       1.98617005      -3.27959847      -0.09334867      -0.32305942       0.05369660       0.31423161      -0.00071670      -0.23018645      -0.03190430       0.26081764      -0.12275931      -0.52166135       3.73965429       2.00573640      -3.14818700      -3.49400227
H       -1.16307712       3.09612322       2.73013306       0.19302575      -0.12516481       0.70643097      -0.17064974      -0.19968366       0.02171402       0.06419688       0.03877690      -0.28335871      -0.11053980       0.01882680       0.04883849      -0.13842053       0.23723195      -0.12869166       0.64431595      -3.40643989
H       -1.26760864       1.84237170       1.72999096      -0.28961444      -0.09537181      -0.44576579      -0.09925310      -0.36986466       0.02384553      -0.17803781      -0.02347739      -0.23385561      -0.08167096      -0.26536717      -0.08993334      -0.49560063      -0.31178601      -0.12811227      -0.48542334      -3.61418622
49
Properties=species:S:1:pos:R:3:original_dataset_forces:R:3:LES_q:R:1:LES_BEC:R:9:forces:R:3:energies:R:1 original_dataset_energy=-211.10760498046875 energy=-211.2264843548228 stress="inf -inf -inf -inf inf -inf -inf -inf -inf" pbc="F F F"
O        1.11682153       0.35832798       3.98300195      -1.11450148      -2.12406135      -0.44051704       0.27806538       0.48363811       0.36641780      -0.36842762       0.30219443       0.83873714      -0.52522011       0.00509106      -0.11906200       0.91382834      -1.04293026      -2.04850845      -0.44099202      -4.61635882
O        1.19769788      -1.38572025      -0.54959965       0.22009972       0.45079103      -0.60095620       0.22409712       1.66066081      -0.55841209      -0.01635637      -0.24927649       1.54219705       0.19069220       0.01994591       0.06683701       0.41724907       0.39531234       0.65058825      -0.69980819      -4.82441597
O       -0.10519165       2.69570994       0.46427730      -0.85268122      -0.38171700       0.75927389       0.25947568       0.61584578      -0.08611496       0.17947478      -0.00195954       1.42887507       0.11562554       0.19659860      -0.06542140       0.46542646      -0.92241604      -0.11500143       0.66156613      -4.71622363
O       -3.97648954       2.25429487      -0.74008954       0.65750813      -0.78889722      -0.12321049       0.28442603       1.38535495      -0.16294638      -0.27599091      -0.27549513       0.60423372      -0.06947059      -0.24929368      -0.11830474       0.44709779       0.66094139      -0.77575823      -0.10000991      -4.70026842
O        2.71249914      -2.92032242      -0.37196314       1.36123788       2.00178337      -0.18517403       0.36209455       1.03352684      -0.04178741       0.04729856      -0.79236281       1.73390388       0.04031720       0.02092152       0.03992682       0.40403401       1.49617670       2.05469231      -0.15126868      -4.43768593
C        1.76112199       1.28487647       3.56807208      -0.72346640       0.05355121       1.03261626      -0.05587961      -0.35865994      -0.49038120       0.29409189      -0.53059850      -0.93307838       0.61738841      -0.04631412       0.36079804      -1.84444959      -0.80371376      -0.02288055       1.08261567      -5.91311757
C        2.44146204      -1.68164086      -0.40566221      -1.22863579      -1.29764831       1.57680142      -0.10086349      -1.94644316       0.69910649      -0.06382107       0.31612399      -2.02841566      -0.11981715      -0.23327206      -0.03261109      -0.15956780      -1.55693900      -1.50538022       1.43449877      -5.26222582
C       -0.02061829       1.47753680       0.56230450       3.46094871       1.52958810      -0.22583140      -0.05397064      -0.87518938      -0.13439177      -0.47969461      -0.29019172      -1.91211893      -0.32268788      -0.52138259      -0.19824798      -0.33967080       3.39057070       1.43199154      -0.39750375      -5.62070988
C       -2.81662202       1.92933345      -0.97190368      -0.00863019      -0.09245317       0.46284258      -0.06834260      -1.61723920      -0.01970907       0.54638363      -0.01654208      -0.83867397       0.51706404       0.66981143       0.44263734      -0.51904135       0.03332936      -0.17143351       0.51586362      -5.55976954
N       -1.98664522       2.66869354      -1.71387112      -0.09907410      -0.77282470      -0.67684567       0.09217720       0.63768948       0.16493203      -0.27780145       0.14950884       0.67950851      -0.42958907      -0.30751373      -0.33812471       0.44884596      -0.00129906      -0.72822199      -0.59044573      -4.85278066
N        1.82141995       1.70154810       2.29650998       0.75307435       1.25118172      -1.58099186       0.09944618       0.27981800       0.16146953       0.02723248       0.26561058       0.56109213       0.02054690      -0.03757992      -0.13372004       1.37723999       0.72814890       1.27065773      -1.55740283      -4.51652969
N       -0.75138032       0.54529870      -0.01424566      -2.05685520      -0.52203643       0.06714899       0.07347292       0.95646706       0.14704089       0.42214996      -0.02112634       0.93456735       0.12408227       0.50280945       0.16283916       0.43003632      -1.73873638      -0.54812297       0.36708075      -4.50480229
C        2.45345306       2.10762525       4.57246256       0.08759996       0.02638945       0.66623890       0.09645710      -0.06513249       0.07874384       0.04536097       0.06747532      -0.02588083       0.01099427       0.10391214       0.08109840       0.01956464       0.07106757       0.06796160       0.67895954      -4.55181575
C       -2.35040450       3.79948473      -2.50345945      -1.06357491       0.33769944      -0.06628576       0.08269536      -0.25753415       0.25956100      -0.18033551       0.03567808      -0.31376330       0.13847444       0.02937318       0.04785174      -0.16259573      -1.10646833       0.32277170      -0.07136557      -4.97062757
C        3.35249710      -0.43561524      -0.06261307       0.81041807       0.80754280      -1.25013483       0.05851865       0.35774139      -0.05828192      -0.04198016       0.57811315      -0.17049436      -0.00346752       0.06756545       0.01226081      -0.13458865       0.92254979       0.85800880      -1.20527309      -4.60229639
C       -2.04736972      -1.89304006      -0.72279501       0.85616642       0.07576887      -1.54486310       0.09435344      -0.07836078      -0.25165560      -0.04769601       0.00700002       0.11524691       0.04423260       0.07230265       0.10548569      -0.07931856       0.68452653       0.24370290      -1.54566020      -4.74724823
C       -1.49590707      -2.89061832      -1.79591453       1.57730150       0.65357608       2.84410191       0.11398457      -0.10539216       0.07003931       0.06187175      -0.06473443      -0.29913706      -0.07307526      -0.05787832      -0.08867602      -0.20318212       1.40168450       0.62349982       2.81988057      -4.52939966
C        2.55872416       0.88661742       0.03956279      -1.95186293       1.66814995      -1.83412218       0.11061771      -0.29023799      -0.01336772       0.02648127       0.03911997      -0.14428149       0.02865127       0.17176613       0.06709318      -0.09901873      -1.91231918       1.54121976      -1.82416998      -4.28457827
C       -2.25266576      -0.50656736      -1.35824299       0.18229793      -1.83867610      -0.76581323       0.09797227      -0.16107154      -0.04977879      -0.02759350      -0.05584439      -0.15457321       0.00654310       0.05049960       0.04941406      -0.13770119       0.30354768      -1.80964013      -0.85143421      -4.84235421
C       -1.09705305      -4.16610241      -1.00482833      -0.76336110       1.27958393      -0.91787666       0.01421299      -0.40668039      -0.29746915      -0.22050393      -0.05204962      -0.20112511      -0.01939500      -0.14435682      -0.10786167      -0.30484693      -0.55989279       1.34659593      -0.94705243      -4.91179808
C        1.33878469       0.88829732       1.13392806       1.45008290       0.58562493      -0.05721196       0.01036192      -0.28184972      -0.12394518      -0.02917365      -0.08514278      -0.24401159      -0.23779425      -0.09032411      -0.22889600      -0.56497766       1.28535334       0.51248763      -0.09236309      -4.67428466
C       -2.22291422       0.57164979      -0.39997062       4.02659559       3.26230192      -2.64586687      -0.01925749      -0.50441517      -0.08015758      -0.12181800       0.29313016      -0.23919942      -0.02248433      -0.35046010      -0.05727985      -0.31176177       3.64962746       3.09463797      -2.75696500      -5.05780199
N        0.08771396      -3.78785205      -0.20409347      -0.67309827       3.42870021      -0.30805382      -0.03162663       0.49107107       0.55054059       0.13227761       0.10246129       0.51069407       0.05092781       0.05911747       0.54169104       0.26906092      -0.64520883       3.10583579      -0.16516512      -3.71455438
H       -1.02717257       2.39119387      -1.79393959       0.04866521      -0.12614578       0.29009986      -0.18648817      -0.32139701       0.01103439       0.00819711       0.02864090      -0.22360768       0.00123017      -0.01167080       0.01640959      -0.25726696       0.05108771      -0.07172705       0.22921802      -3.59318580
H        2.28641295       2.65680361       2.15515399      -1.18130136      -2.39450574      -0.17404318      -0.20177628      -0.19804947       0.01369505       0.06057954       0.03455387      -0.21035270       0.10244582       0.05513049       0.07673378      -0.10481715      -1.17439664      -2.34960990      -0.14019465      -3.53365812
H       -0.19315282      -0.31063500      -0.17326988      -0.61862260       0.51519996       0.01302758      -0.12087906      -0.30883875       0.25271522       0.11641194       0.31051703      -0.37195314      -0.04367480       0.12435412      -0.01485848      -0.10625744      -0.63241804       0.53750192       0.03344902      -3.74338363
H        2.47208047       1.64399433       5.58314610       0.42592415       0.04161208      -1.12437499      -0.04586444      -0.00596903       0.00591754       0.02816679       0.03251016       0.03223427       0.06209554       0.05591642      -0.00635653       0.16158238       0.43869400       0.00600849      -1.13812438      -4.01376857
H        3.36876130       2.35783243       4.09797668       1.31800365       0.57451344       0.52658427      -0.05341180       0.02419354      -0.00267294      -0.03796581       0.03550499      -0.00973929       0.00762113      -0.04895915      -0.02024860       0.00272660       1.32472845       0.55757932       0.49806563      -3.85946356
H        1.85047293       2.97201824       4.68537760      -0.36202505       1.21325827       0.08934284      -0.05033752       0.02867906      -0.02826639       0.02256482      -0.05688430       0.03449474      -0.01706973      -0.01742720      -0.00861474      -0.01374598      -0.36861770       1.22528411       0.06747595      -3.83989851
H       -1.60761738       4.50082397      -2.35889149       1.67759824       1.65101016       0.15035470      -0.05646049       0.01052348       0.04375883      -0.00847992      -0.00029976       0.10406949      -0.06197011      -0.00100085       0.00663774      -0.02935388       1.69032740       1.65633365       0.13902621      -3.80933773
H       -3.25991464       4.32469463      -2.25852776      -0.41382623      -0.49922776       0.77442074      -0.04110095       0.11175616      -0.17333405       0.07922847      -0.05446351       0.03473963      -0.01107378      -0.04140846       0.07127474      -0.04877795      -0.43251588      -0.49190512       0.77627827      -3.89532038
H       -2.43584967       3.65439653      -3.55878210       0.12424155      -0.78013021      -0.77677363      -0.05705355       0.00096572      -0.05146516       0.04024117       0.01255534      -0.03083783       0.00786829       0.03228763      -0.07106628       0.11414698       0.14063340      -0.79731815      -0.74643234      -3.91175018
H        3.88832068      -0.38924888       0.91251659      -0.26283881      -1.31007481      -0.66703945      -0.05956781       0.10154622       0.00222594       0.08385401      -0.07342733       0.00555969       0.01413811      -0.10404369       0.01411297       0.06598549      -0.20347420      -1.29407256      -0.65811348      -3.92290728
H        4.16547585      -0.28951323      -0.88515508      -1.38314748      -0.47624558       1.44241393      -0.05105889       0.12348370      -0.01861797      -0.08600987      -0.04306782       0.04578305      -0.00032328       0.05221594       0.00941588       0.04493973      -1.46227681      -0.41681490       1.45631731      -3.97899494
H       -2.91483521      -2.38608909      -0.30562419      -0.57534701       0.53372371       0.13468024      -0.06595004       0.10787345       0.10309715      -0.02527411       0.08138492       0.09608623      -0.01009180      -0.10843563      -0.06968386       0.01010923      -0.52781548       0.56536431       0.10647766      -3.96170549
H       -1.33520126      -1.74349010       0.10101411      -0.30898193      -0.35907224      -0.33231080      -0.03282687      -0.03077590      -0.04647371       0.05856856       0.02472265       0.02351272       0.00296017       0.01003414      -0.06449980       0.05444895      -0.34405789      -0.32552483      -0.14995786      -3.75520010
H       -2.16554737      -3.04109001      -2.59996367      -0.75427502      -0.37211996      -0.60004836      -0.06936584       0.00763264      -0.04689756       0.03430541      -0.00752514       0.03187964       0.00979548       0.08406619       0.04969370       0.13837109      -0.68331408      -0.41975562      -0.61065743      -4.06118610
H       -0.54295015      -2.49528790      -2.16359329      -0.37980893       0.11051083      -0.33564544      -0.04305230       0.03847150       0.04248100      -0.07462018       0.04658908       0.09682312       0.00477935      -0.02552593       0.01152779       0.01830126      -0.40807743       0.11902116      -0.39576065      -3.86982164
H        3.28193355       1.71368623       0.19773015      -0.35288507      -0.60963124       0.83123505      -0.04803384       0.15873300       0.10215986       0.01324512       0.16789267       0.17273034       0.02948683      -0.04850630      -0.02018960      -0.01415692      -0.32979998      -0.65787538       0.86272847      -3.92042364
H        2.14640832       1.33934641      -0.96364462       0.35669377      -1.65100777       1.50801384      -0.03994364       0.02999431      -0.01820624       0.03280348      -0.05905149       0.08824545      -0.06308261       0.04106328      -0.08076032       0.11940201       0.32024422      -1.68167234       1.49111523      -3.95936665
H       -3.06755614      -0.49448967      -1.98199904      -2.78243470      -0.14069155      -0.85471922      -0.06824788       0.02427557       0.01338998       0.05376183      -0.00911690       0.04430989      -0.00783890       0.09709815      -0.00385038       0.07350206      -2.85850938      -0.12400319      -0.86945838      -3.76656462
H       -1.54297757      -0.26406860      -2.12281609       1.26193774      -0.37601149      -0.12360203      -0.05251953       0.06302272       0.03264889      -0.01854074      -0.07188700       0.03084620      -0.07335107      -0.08907610       0.03394759       0.11286677       1.24987564      -0.29649665      -0.02692449      -3.66981631
H       -0.85913169      -4.88691330      -1.74812615       0.52357060      -1.02236176      -0.03033598      -0.07190292      -0.03308186      -0.20107460      -0.03542837       0.01762241      -0.02042052       0.03868079       0.00481061      -0.05739472       0.00487271       0.47404862      -1.04918151      -0.08846517      -3.89409616
H       -1.95532537      -4.46761513      -0.39928487       0.54497659      -0.27317661       0.16606578      -0.06867476       0.05676646      -0.06621624      -0.04431744       0.02932215      -0.06997202      -0.03927496      -0.05410350      -0.13006381      -0.00574853       0.54888265      -0.25215258       0.20700397      -3.94238345
H        1.16220760      -0.16455203       1.44478893       0.35877585       1.06818783       0.21468386      -0.03526367      -0.01492481      -0.01000092      -0.02392175      -0.02296627       0.04752873      -0.05453762      -0.01329618      -0.05650127      -0.06925958       0.39103743       1.03772089       0.20695759      -3.91691317
H       -2.82114458       0.40219229       0.35414752      -2.69120073      -0.96800089       4.34188509      -0.07920362       0.10220556      -0.01013030      -0.02836127      -0.03269247      -0.06179747      -0.00079315      -0.04247709       0.00581827      -0.00064044      -2.47866098      -0.92091561       4.17679835      -3.60696724
H        0.77278894      -3.08952045      -0.65412730      -0.06473999      -0.47268808      -0.84640121      -0.08858662      -0.51834394       0.08919930       0.06916516      -0.15526575      -0.60139957       0.04227345       0.02607207      -0.16171020      -0.14491156      -0.01561162      -0.29811208      -0.81401873      -3.26074038
H        0.70572919      -4.43178177       0.16882545       1.01043963      -2.01440716       1.06753194      -0.16945067      -0.28381693       0.01031388      -0.00899923       0.00920339      -0.13481770       0.03626192       0.00511634      -0.05921602      -0.17084977       1.00797850      -2.13491750       1.01204497      -3.51804925
H       -0.09115022      -3.00450659       0.46620330      -0.43398005      -1.45499527       0.12676242      -0.18132617      -0.22853278      -0.17873362       0.05939515       0.03453620      -0.59824780      -0.05909411       0.08642635       0.03971477      -0.28713171      -0.45090453      -1.52246312       0.21156570      -3.17154552
49
Properties=species:S:1:pos:R:3:original_dataset_forces:R:3:LES_q:R:1:LES_BEC:R:9:forces:R:3:energies:R:1 original_dataset_energy=-214.38014221191406 energy=-214.42523423833978 stress="inf -inf -inf -inf inf inf -inf inf -inf" pbc="F F F"
O       -2.35277486       0.59673190       3.11559939       0.80888355      -1.09424794      -0.11602418       0.27026841       0.68076617      -0.38611125      -0.13813558      -0.47500794       1.00629889      -0.10986785      -0.02098790      -0.30158179       0.99158958       0.84249457      -1.12014786      -0.13253240      -4.70402791
O        0.28680202       2.04671574      -2.01403093       0.55250758      -0.27378017      -1.80318964       0.35096219       1.29182728       0.09103196       0.42966533       0.00751003       0.55265854       0.10624943       0.13078057       0.00638976       1.28470001       0.61395934      -0.24482013      -1.66608276      -4.41120757
O        4.06011581      -1.75240850      -1.69814944      -0.34983116       1.00013363       0.19142887       0.29633591       1.15576818      -0.39823479       0.14182536      -0.61813093       0.70937700       0.07847159      -0.09953667       0.20301285       0.65122933      -0.35589611       0.97437402       0.22729991      -4.60254000
O        1.42287362      -2.20740080       1.47488070      -0.22497600      -0.31060070       0.39421609       0.26665318       0.77333001      -0.40579373       0.12548579      -0.24618083       1.18930756      -0.51630945      -0.02972164      -0.34057795       0.56817833      -0.24633722      -0.26814669       0.36241648      -4.71933413
O        0.64531708       2.35585594       0.05550855       0.37316251       0.69285107       2.72399330       0.24776733       1.09210020      -0.06030447      -0.35712331      -0.06113641       0.69997954       0.07814363      -0.05941546       0.16468735       1.20394691       0.31703987       0.71993399       2.76691274      -4.64284681
C       -1.79160964      -0.43080097       3.54775119      -1.87650561       1.57829785       0.75291181      -0.05781328      -0.97254131       0.74377402       0.65228041       0.84921607      -1.17724606      -0.02162367       0.52301210       0.14913372      -1.21449600      -1.93829964       1.65685509       0.73642626      -5.80893771
C        1.11056209       2.20476770      -1.08472502      -1.10354531      -0.30420062      -0.98531413      -0.09080908      -1.48672709      -0.10958478      -0.04380936      -0.02503515      -0.22103568      -0.28182288      -0.03749275      -0.16662335      -1.92813186      -1.04775782      -0.22616366      -1.15481704      -5.46724019
C        3.09261727      -1.01185215      -1.49854469       0.56876832      -2.44454622      -0.39505836      -0.08401300      -1.45272249       0.59330438      -0.49024709       0.78507452      -0.55931871      -0.22463287      -0.31750208      -0.24778352      -1.07381462       0.57949769      -2.40825571      -0.45474771      -5.58342384
C        0.89949095      -1.17681599       1.10202765      -0.01714260       0.14054535      -0.03779871      -0.07767690      -1.04471435       0.19114800       0.28532675       0.19671665      -1.54943585       0.92091870       0.31785433       0.76514142      -0.69332685      -0.00476291       0.15197943       0.06437690      -5.72144614
N        2.11079407      -0.90192473      -2.40297174      -1.64571095       0.69262040      -0.33721706       0.08950008       0.59913065      -0.14554067       0.44345185      -0.12367132       0.30817142       0.15195828       0.27105225       0.10062214       0.86757779      -1.68798861       0.63641539      -0.37765335      -4.89029463
N        1.50922334      -0.25970656       0.32948601       0.28068939       0.32885849      -0.72730839       0.10811123       0.87296400       0.19804456      -0.42250254       0.00141104       0.86603392      -0.34819706      -0.34947199      -0.36854105       0.62077915       0.19336347       0.39302134      -0.74789607      -4.69913589
N       -0.90860176      -1.14423537       2.86226344       1.41314614      -0.34373507      -1.53565311       0.07187679       0.71298343      -0.35481005      -0.48278326      -0.33849597       0.57258268       0.02157609      -0.46519621       0.17144661       0.99956407       1.49533621      -0.30954517      -1.58289989      -4.63853849
C       -2.22127509      -0.93182218       4.93178320       0.31843290       0.03020607      -0.97219330       0.09378053      -0.09695918      -0.02640720      -0.07665124      -0.01726886      -0.04631349      -0.12532893      -0.11183363      -0.11806936       0.19779995       0.30527144       0.00657421      -0.99451411      -4.45837177
C        2.09951568      -1.51960433      -3.72052050       1.24208832       0.08830471      -0.61287600       0.08194830      -0.08556938      -0.04966544      -0.13924059      -0.00594670      -0.20644674      -0.15257313      -0.01014745      -0.13709980      -0.46248816       1.20137133       0.13754951      -0.57178640      -4.78617469
C        2.61204267       2.06901312      -1.30963445       1.04838634      -0.46297538       0.14836113       0.08160672       0.20658839      -0.00551904      -0.05266181       0.09088824      -0.08357299      -0.03141899      -0.10259030      -0.03587982      -0.06400893       0.94427901      -0.42643423       0.18794914      -4.73987787
C       -1.71809959      -0.87433857      -0.91260231       0.55629480      -0.20995679       0.36443189       0.10558236      -0.21553633       0.03096849      -0.01581442      -0.03606400      -0.14068486       0.08346001       0.01982028       0.12300098      -0.07683118       0.52190576      -0.21170424       0.32834455      -4.74653442
C       -2.92502832       0.05060029      -1.05609751      -0.65596116      -0.95898396       0.81048834       0.09390678      -0.15558886       0.03722488       0.03307778       0.08320375      -0.10285437      -0.05814356       0.00165194      -0.10257358      -0.14640602      -0.68327468      -1.03846814       0.78883859      -4.74582146
C        3.41358209       1.13842940      -0.33480948      -1.50057137       0.92190242       1.33365202       0.10021298       0.02597964      -0.00633024      -0.03315894       0.02361447      -0.18638018       0.10651371       0.06911701       0.09125114      -0.16268026      -1.51295591       0.86963485       1.30057319      -4.59106078
C       -1.53603721      -1.55834889       0.49019021      -0.65542799       0.77437222      -0.70498365       0.09842743      -0.06746380      -0.01792707      -0.03710871      -0.00643542      -0.07454721       0.01188325      -0.04787820      -0.03784271      -0.13823753      -0.71946804       0.74236234      -0.75686334      -4.58941413
C       -2.94866347       1.25121200      -0.08449197      -1.81546533      -1.13563192      -1.29703283       0.03395451      -0.34683126      -0.16221562       0.02826614      -0.25201326      -0.35068098       0.02699181      -0.05715338       0.11500039      -0.30096748      -1.71128469      -1.16251034      -1.38816204      -4.97044622
C        2.90872478      -0.31108472      -0.17230862      -0.77121282       1.05696809       0.09189236      -0.01716805      -0.63386055      -0.05161515       0.12008558      -0.23759778      -0.27365941       0.08683301       0.13996589       0.08170759      -0.13190526      -0.69193554       1.00642072       0.09740161      -5.11070173
C       -0.57334292      -0.80441391       1.43739772      -0.13318235      -0.92361319       0.68160450      -0.02235495      -0.13395269      -0.10078048       0.06989072      -0.19901405      -0.23888145       0.13155350       0.11178948       0.02838639      -0.65437463      -0.13598442      -1.01827363       0.68345588      -4.98006952
N       -2.02346611       2.29536676      -0.48407146      -0.63212627       1.43654048       0.15202208      -0.05183325       0.52807456       0.00891332      -0.01426907      -0.02977737       0.42959288       0.02430521      -0.00162745      -0.02034633       0.21656015      -0.76221682       1.44449119       0.12707672      -3.74210243
H        1.35104132      -0.25574419      -2.20033073       0.36213091      -0.29220778      -0.15718886      -0.18253031      -0.28161678       0.08558271       0.03042225       0.09762014      -0.30299192      -0.03649442      -0.00994621      -0.00385118      -0.19640875       0.50208807      -0.33420653      -0.20582379      -3.67377150
H        0.97300947       0.58298492       0.08941841       0.56026053      -0.58409381       0.72086823      -0.15220557      -0.05020270       0.19237707      -0.06863268       0.22284217      -0.57501453       0.07132186      -0.08312128       0.01252794      -0.12463085       0.58955105      -0.71328182       0.72407029      -3.63974870
H       -0.43009648      -1.94294691       3.27447319      -0.25491387       0.42831224      -0.28363869      -0.19444948      -0.22373448       0.03334890      -0.01789969       0.04129661      -0.26749525       0.03299583      -0.02696434       0.01856548      -0.17776235      -0.26748060       0.43328181      -0.30780472      -3.65684147
H       -2.04741240      -0.13483739       5.65823889      -0.49732718      -0.16568375      -0.16117345      -0.05129238       0.00694666       0.02347245      -0.05094454       0.00458779       0.02521308       0.06731634      -0.00627509       0.04056641       0.10181943      -0.50704018      -0.15780815      -0.16087266      -4.03743243
H       -1.63319528      -1.77893496       5.20580530       0.41399911      -0.64224762       0.38856140      -0.05145233       0.01129140      -0.03887433       0.02116351      -0.05243324       0.05221501      -0.00765326       0.03571574      -0.02577470      -0.03306662       0.41244038      -0.64109232       0.38059154      -3.97754120
H       -3.26299143      -1.27904749       4.83303022       0.38272956       0.55134535       0.32420865      -0.04955873       0.10836344       0.05610833      -0.06361770       0.02721377      -0.00837940       0.02849643      -0.01115096      -0.01465409       0.01008497       0.40198746       0.56829632       0.33935828      -3.99360835
H        2.29301023      -2.58911228      -3.71317625       0.01165328      -0.07707705       0.54374278      -0.04880814      -0.04735923      -0.01762253       0.02942149      -0.03561802       0.10166611       0.08723162       0.01382016      -0.00397546      -0.02966840       0.00767310      -0.06161997       0.52631276      -3.97828166
H        2.93666410      -1.10577440      -4.32601070      -0.68063748      -0.11813482       0.19536497      -0.04958383       0.01593985       0.02647784      -0.05562742       0.03981263      -0.02110575      -0.03629260      -0.02538717       0.01442357       0.04824495      -0.65536952      -0.11206489       0.20448659      -3.95477098
H        1.15352595      -1.39659119      -4.25353098       0.15127794       0.41832024       0.42360222      -0.05800873       0.03299337       0.00846701       0.07634418       0.00170093      -0.01896648       0.01032053       0.06120654       0.00695267       0.04144648       0.15709221       0.39932077       0.43604395      -4.00936810
H        3.10747528       3.04649496      -1.24421692      -0.38877633      -0.12410553      -0.01849516      -0.05704243       0.08872739       0.06078686      -0.02945927       0.04665157       0.12471936      -0.03506565      -0.03175249      -0.04014372       0.01440194      -0.41475512      -0.14159030      -0.04005710      -3.93467956
H        2.80652332       1.68400228      -2.30124426      -0.29484263       0.20097297      -0.35918057      -0.05296161       0.03096133      -0.03121722      -0.00790685      -0.05953774      -0.01368690       0.03796459      -0.05591085      -0.00885790       0.15121266      -0.25779194       0.22301034      -0.37068755      -3.93693005
H       -0.84005874      -0.29659551      -1.17638183       0.41426915       0.11441527       0.14551347      -0.05392432       0.06148749       0.02395520      -0.05712236       0.01870569      -0.04349887      -0.04728772      -0.01552620      -0.03976317       0.01987947       0.36605677       0.06603629       0.19889435      -4.03156575
H       -1.69601977      -1.69170868      -1.63765454      -0.51868987       0.31262711      -0.14083691      -0.06049770       0.02632791      -0.03812105       0.01475086      -0.05153195       0.06879091       0.05003629       0.00425807       0.04965396       0.11039483      -0.55979853       0.29189117      -0.16381894      -3.91322086
H       -3.09446311       0.35759562      -2.09093785       0.29931879       0.23079540       0.09488470      -0.05574837       0.03334422      -0.04550237       0.02827625      -0.03452281       0.04416058      -0.02128038       0.05545882      -0.02213388       0.12702233       0.32556972       0.24330722       0.10452543      -3.97446357
H       -3.82390285      -0.55098653      -0.81496847       0.33589527       0.34616888      -0.01593227      -0.05893357       0.09272499       0.04344654      -0.00720455       0.00964856       0.07125385       0.01927524       0.00821315       0.03224124       0.02502026       0.34500992       0.34580897      -0.01139847      -3.83974515
H        3.39134121       1.61606181       0.67000550       0.05119902      -0.38969466      -0.58685499      -0.05104846      -0.07849375      -0.06603668       0.01212482       0.01831850       0.06848782       0.02773927      -0.00812468       0.01164415       0.12905264       0.05257739      -0.38665663      -0.57892099      -3.93917831
H        4.43284845       1.10030842      -0.64635682       0.66540128       0.01141911      -0.32984287      -0.06224240       0.08420520      -0.02901318       0.00404815       0.03456106       0.03452382      -0.04532839      -0.01815403      -0.03145224       0.00660779       0.66518157       0.04685648      -0.31500929      -3.98368932
H       -1.15956616      -2.54963493       0.26983261       0.12832646      -0.19889124       0.41866246      -0.05993024      -0.01225361      -0.03103933       0.01767674      -0.01407544       0.13014628       0.00890442      -0.00135783      -0.00152310       0.02981549       0.14580183      -0.18881627       0.43330909      -3.96732820
H       -2.53489399      -1.67160475       0.96813899       0.72010589       0.13452011      -0.20616303      -0.05754704       0.12968016       0.05976387      -0.04616568      -0.01486449      -0.01396202      -0.02418910      -0.04443133      -0.03082004       0.04310492       0.73507988       0.13161229      -0.16475069      -4.01539904
H       -3.98581219       1.60302389      -0.11485952       0.39503247       0.37666151       0.03212171      -0.06517997       0.06734831      -0.02096481      -0.03285896      -0.06258151       0.02099025       0.02606431       0.04990273      -0.01016064      -0.01638046       0.35885139       0.38534428       0.08342118      -3.81092640
H       -2.75315976       0.98979247       0.92101914       0.27194142      -0.44142815       1.00531125      -0.03729801      -0.02218597       0.01913328      -0.02118343       0.03417934      -0.00312237      -0.01449119      -0.04145828       0.02722805      -0.07593740       0.27999854      -0.38181099       1.05989826      -3.94187769
H        3.55989575      -0.82006299       0.52516621      -0.18852372      -0.18932673       0.16267608      -0.05635069       0.15141330      -0.06126101       0.01841802      -0.05174463       0.06096717      -0.03250081       0.17105531      -0.05654660       0.01805156      -0.17155359      -0.20342925       0.18872682      -3.83126719
H       -0.67694485       0.26114273       1.30335522      -0.16685763       0.20699249       0.26604784      -0.04022441      -0.06435155      -0.00729772       0.09485916       0.04371728       0.04960337      -0.09330416       0.07390610      -0.00068422      -0.05031766      -0.15928095       0.24587340       0.25103535      -3.89696807
H       -1.64365387       2.16270924      -1.40677500       0.62554067      -0.03834882      -0.92489922      -0.14776614      -0.43570564       0.06399341       0.13292688       0.11848897      -0.16842850      -0.02772168       0.05819001      -0.01461049      -0.34113279       0.64600980      -0.02219176      -0.83889949      -3.47672163
H       -1.16643298       2.29725695       0.06622881       1.16109717       0.16265081       0.33021179      -0.11582144      -0.71489956      -0.02649893      -0.04376801       0.09939400      -0.19414985       0.00144766      -0.04332255       0.00865289      -0.21301813       1.17864631       0.18694554       0.38001761      -3.57425058
H       -2.42949772       3.23827648      -0.43219581       0.25863042      -0.51428300       0.01003456      -0.18787339      -0.25799689       0.10296610      -0.00389095       0.15231202      -0.34488009      -0.00644485       0.01666792      -0.04036602      -0.17209271       0.30709877      -0.52815824       0.00423532      -3.38827911
46
Properties=species:S:1:pos:R:3:original_dataset_forces:R:3:LES_q:R:1:LES_BEC:R:9:forces:R:3:energies:R:1 original_dataset_energy=-202.02017211914062 energy=-201.88060054193915 stress="inf inf inf inf inf inf inf inf -inf" pbc="F F F"
O        0.83043301       2.03861928      -2.43855715      -0.12086339       0.15224400      -0.20129715       0.25688431       1.21147816       0.04390716       0.34646340      -0.12826158       0.40608457      -0.01441377       0.17888245       0.04777611       0.95936215      -0.13869404       0.08455925      -0.29263933      -4.69179735
O        1.66718638       0.56131190       2.09785843      -0.14239591      -0.02895531      -0.26619926       0.28858826       1.00553810      -0.22498533      -0.33573134      -0.30805250       1.20514794       0.00336943      -0.31907324      -0.20752725       0.70466581      -0.12514765      -0.13658250      -0.26213278      -4.71619983
O       -1.92307973       2.15293598      -0.27164119       0.29040277       0.15407808       0.71953636       0.27752191       1.13804110      -0.57009814       0.02372659      -0.18131097       0.80749626       0.12076535       0.17403585      -0.04283072       0.40976667       0.22981278       0.14164073       0.69434123      -4.67920890
O       -2.96200371      -1.54410005      -2.41085601       0.50507551       0.63165098       0.93770868       0.29272524       0.84520737       0.54467787       0.16565612       0.58387062       1.02470418       0.04442895       0.29354373       0.13939853       0.64253939       0.49700736       0.64162627       0.89655154      -4.62737824
O       -0.11226916       1.03850651       3.33354545      -0.89190358      -0.45606840       0.78800315       0.29109669       0.86882954      -0.19909979      -0.73042056       0.06777854       0.98008655      -0.21735550      -0.49465824      -0.16126293       1.15239865      -0.86010364      -0.48779994       0.82049492      -4.71767678
C        1.76786411       1.80918813      -1.68216228      -0.41391325      -0.35177523      -1.47968173      -0.06742736      -1.10098307       0.30043448      -0.17439647       0.44115565      -0.18419476      -0.20102414      -0.00049627      -0.10280330      -1.88209206      -0.46401270      -0.37427800      -1.49133329      -5.88375506
C        0.70180607       1.31284952       2.45192909       0.90039349       0.91589648      -0.48001283      -0.06016245      -1.24239953       0.56037056       1.17187763       0.28053992      -1.31083385      -0.07328485       0.79869456       0.28853452      -1.01873115       0.85545564       0.98490370      -0.36930755      -5.54618819
C       -0.80583888       1.68388796      -0.15363774      -0.32895193       0.83884889      -0.74439913      -0.08333845      -1.27437135       0.55847341      -0.15515722       0.35990892      -1.52994963      -0.26058949      -0.13504240      -0.29039227      -0.15907878      -0.29163137       0.69971375      -0.78952110      -5.57079593
C       -2.17679691      -0.65379536      -2.05017138      -0.83547753      -1.15007091      -1.38669991      -0.08210456      -0.79292893      -0.76140983      -0.25926442      -0.82758346      -1.26068332       0.23205492      -0.18064320       0.30724229      -1.01159683      -0.78223630      -1.12883668      -1.38735779      -5.56567287
N       -1.80189395       0.32445735      -2.86699772       0.74651486       0.28556684       0.46289200       0.10758186       0.32576286       0.24144727       0.02036150       0.29990112       0.68758144      -0.28679873      -0.06840586      -0.40850714       0.68578547       0.67835888       0.31751541       0.41406873      -4.89162033
N        1.67484581       2.04955316      -0.38608930       0.44933373       0.12903626       2.50148034       0.08200236       0.60563711      -0.12161627      -0.19796309      -0.25169223       0.10436727       0.29589399      -0.15861163      -0.00570371       1.26966053       0.45465319       0.13947506       2.45308828      -4.75007527
N       -0.53784424       0.40722215      -0.46974343       0.02399022      -1.50131714       0.43116075       0.11072670       0.52265632      -0.03094080       0.09709504      -0.09806170       1.25867572       0.17748456       0.04825025       0.24010699       0.26501649       0.11220860      -1.40598850       0.58328886      -4.74110846
C        3.02355433       1.17361116      -2.21164227       0.21852128      -0.28660184      -0.54668051       0.08383665       0.07441928      -0.14171144      -0.02896671      -0.07448234      -0.07263020      -0.00033212      -0.06340037       0.05680195      -0.05184227       0.22834034      -0.27506860      -0.55068136      -4.48957044
C       -2.17498136       0.43957734      -4.24311924      -0.10297980      -0.83955777      -0.49869803       0.08139556      -0.17166066       0.03459004      -0.12050148      -0.04186508      -0.10248984      -0.06961720      -0.15045608       0.09417387      -0.59866418      -0.08927527      -0.84556644      -0.46677841      -4.91767432
C        0.00124186      -2.27798104       0.69055057       0.93230754      -0.11220231      -0.09989265       0.10334068      -0.13756065      -0.04488435       0.00696966      -0.02529464       0.01744359      -0.03039935      -0.00335104      -0.18179093      -0.05524686       0.89789181      -0.06051156      -0.09777606      -4.81596696
C       -0.86902803      -2.23782039       1.93524933       1.45797873       0.66890037      -0.42785001       0.10725094      -0.14472073      -0.04088241       0.08261421       0.04923355      -0.16660720       0.10114164       0.01291248       0.08991185      -0.14608160       1.46389992       0.60641145      -0.52254159      -4.77767501
C        0.57254994       2.70746231       1.75755310       0.80236799      -0.78154689       0.06661449       0.07842863      -0.07208918      -0.07565667      -0.07084179       0.02742137       0.21142545      -0.07661943       0.04009927       0.01988957      -0.03553764       0.88829272      -0.70445716       0.06502171      -4.54383976
C       -0.70966828      -2.00865531      -0.63216138      -0.12069212      -0.97027522       0.43636703       0.10111635      -0.07460210       0.06674956       0.01567014      -0.02483950      -0.18533469      -0.02751722      -0.01415410       0.05108441      -0.06387783      -0.05912387      -1.08132270       0.45382625      -4.72376873
C       -0.01605737      -2.61832595       3.18033671      -1.51993334       0.10962535      -0.47199661       0.01354953      -0.32511767      -0.13390351      -0.09492648      -0.14309630      -0.38485349      -0.04010367      -0.12157263      -0.08021184      -0.18659696      -1.55190701       0.07721704      -0.44096798      -4.79192597
C        0.43911278       2.55676436       0.23014569      -0.44370905       0.01364851      -0.25900307      -0.01727669      -0.38262469       0.12245621       0.16590966       0.08126816      -0.25954204      -0.12859919       0.11403025      -0.29614283      -0.46488390      -0.46937421       0.02375728      -0.21535119      -5.03695611
C       -1.48983681      -0.70112383      -0.69162047       0.53517640       0.65016001      -0.52135032      -0.02987352      -0.25967342      -0.11973291       0.05694507      -0.15482173      -0.58371987      -0.11176669      -0.11917125      -0.19591093      -0.14499263       0.51632609       0.68980275      -0.55175708      -5.17414296
N        0.83973467      -1.47348452       3.64618373      -1.35222316      -1.28382730      -0.73459780      -0.04526775       0.31923616      -0.01157132       0.24393920       0.02471169       0.56168024      -0.17724227       0.15132167      -0.15015584       0.47240374      -1.30683726      -1.35642613      -0.67171398      -3.74824037
H       -1.06051838       0.91906816      -2.53362894      -0.03955255       0.25442055      -0.14399527      -0.14814915      -0.33524124      -0.17107316       0.07120263      -0.15961903      -0.27907596      -0.04910435       0.02353755      -0.03939329      -0.09502022      -0.00351870       0.27121113      -0.19232450      -3.68601387
H        2.42588758       1.78738117       0.26251787      -0.66781867      -0.00736986      -0.56078577      -0.19229530      -0.27900059      -0.09204893      -0.08970654       0.01254217      -0.19513932       0.09919197      -0.04355760       0.08607008      -0.22459278      -0.69769231       0.00310441      -0.54168405      -3.61142882
H        0.42718947       0.14179516      -0.46525782       0.11487085      -0.04042850       0.19896224      -0.18428142      -0.21256267       0.09412482       0.00384091       0.04310681      -0.12170721       0.08808972       0.04201716       0.04887405      -0.21478765       0.03713610      -0.02737388       0.15922424      -3.50675300
H        3.90337324       1.67724514      -1.82973313       0.22966081      -0.10718734       0.06200081      -0.05398766       0.01484257       0.01140798       0.06862432       0.04268779       0.00648145       0.00740289       0.03596865       0.02748138      -0.01066826       0.24431705      -0.10738055       0.05922139      -4.02095516
H        3.08393192       0.09388983      -2.00967646      -0.09929913       0.40872875       0.33820945      -0.04978418      -0.05210174      -0.04769004       0.02482580      -0.02547292       0.09827524      -0.01588520      -0.02044363       0.00392486       0.00022031      -0.10834299       0.43017004       0.33657616      -4.00620656
H        2.99282360       1.24660301      -3.30350089       0.05713681       0.20707370       0.32766840      -0.04435446       0.00291251      -0.01009448      -0.01421004      -0.01296422      -0.00488321       0.01077861      -0.05933002      -0.00618174       0.11463377       0.07691497       0.19356044       0.30679956      -3.94119907
H       -2.60184431      -0.48224905      -4.65485287       0.31643134       0.02062907       0.46542221      -0.03784264       0.00100019       0.01834028       0.02615772       0.03776054       0.01288409       0.10160780       0.05037232       0.03505597       0.04842829       0.32042653       0.04077352       0.45699187      -3.94361494
H       -2.92389202       1.17773747      -4.38547659      -0.63908046       0.87464458      -0.06912538      -0.05942566       0.01301144      -0.04341184       0.03281613      -0.04850505       0.02147078      -0.05467879       0.01736503      -0.01548438       0.03411558      -0.64480411       0.87674740      -0.07306251      -3.93896015
H       -1.30384398       0.70536464      -4.81827545       0.26170966       0.13008098      -0.22250964      -0.05699269      -0.00665393       0.01130935      -0.06919226       0.01069178      -0.02645487      -0.01154665       0.00844684      -0.05405608       0.15869633       0.26197295       0.12082454      -0.25410054      -3.95061687
H        0.82875419      -1.55797625       0.76534557      -0.24497750      -0.03337332       0.30969989      -0.04156687       0.07114309      -0.01930282       0.03886662       0.07618172      -0.05152990       0.00224893       0.00079415       0.00878690      -0.03158818      -0.21779684      -0.04244818       0.25780561      -3.93600622
H        0.51881993      -3.25604701       0.67425454      -0.37142897       0.26509574      -0.34572837      -0.05719692       0.05374211      -0.07956302       0.02626015      -0.07226371       0.05772072      -0.04312216       0.00755800       0.07823534      -0.00453157      -0.35968598       0.29402954      -0.36639028      -3.88961180
H       -1.69067836      -2.91553092       1.78476572      -0.30694178      -0.38534978       0.35909152      -0.06742099       0.11686497       0.07548518      -0.00409545       0.03937320      -0.02219683       0.02595917       0.03546563       0.01691133       0.02946594      -0.30210678      -0.38142097       0.40365517      -3.95168072
H       -1.26579106      -1.23073089       1.98715115      -0.21617082       0.13007441       0.55193812      -0.05606949       0.00300807       0.01494315      -0.08713787      -0.09599596       0.03066190       0.00588442      -0.03442547      -0.03778147       0.04034274      -0.22395086       0.17546142       0.54532816      -3.98453160
H        1.49381983       3.28784633       1.95751095      -0.37795776      -0.33253890      -0.05344413      -0.04932630       0.08776166       0.11450810       0.08443900       0.08303446       0.14841278       0.08708905       0.02847647       0.03809522       0.01806965      -0.39695175      -0.35833484      -0.05301496      -3.94849926
H       -0.25677067       3.25472283       2.20668674      -0.01521931      -0.21574700      -0.38165355      -0.05221873       0.04540781      -0.05279665      -0.03908354      -0.06745712       0.12000636       0.07797058      -0.05182291       0.10477758       0.08206525      -0.02093544      -0.24707123      -0.38394993      -4.03841662
H        0.07013541      -1.98975754      -1.38611293      -0.03379572       0.03717778      -0.38941422      -0.06045211       0.03560793      -0.04646570      -0.07206948      -0.00269744       0.03939428       0.02123084      -0.03006503      -0.00013958       0.09073273      -0.06427796       0.07048577      -0.33289341      -3.88307796
H       -1.36638093      -2.86326551      -0.86725467       0.08824882       0.62573802      -0.02918185      -0.04922275       0.03505486       0.02369003       0.02411739       0.01328290       0.09301969       0.00684779       0.05276727       0.05803191       0.03589476       0.10473444       0.59488228      -0.02152359      -3.96016622
H       -0.78639686      -2.88431239       3.92475152       1.04897058       0.05634119       0.23525998      -0.06767898       0.02765684      -0.01227402       0.02046287       0.03549007      -0.07429265       0.05580366      -0.03140124      -0.07289065       0.10063382       1.08410394       0.09097260       0.24625350      -3.88956724
H        0.60357714      -3.46829247       2.88931179       0.00397046       0.15305561       0.47941589      -0.06900385       0.02108964      -0.11140919       0.09251788      -0.03587342       0.02445345       0.07384781       0.00592118      -0.02092486       0.01096785       0.01269731       0.17707061       0.49159249      -3.92946018
H        0.24742234       3.54690003      -0.18069223      -0.21336922      -0.14566603      -0.12021423      -0.05876748       0.06319411       0.03504750       0.00422160      -0.03859644       0.10924259      -0.05069798       0.03107481       0.00148662       0.09134758      -0.21515101      -0.12193096      -0.08994648      -3.82323535
H       -2.29579401      -0.67115313       0.01645684      -0.20943294       0.09215628       0.57928193      -0.06702869       0.02989947       0.01287862      -0.05504012       0.07434552       0.01753937       0.07122840      -0.04329886       0.02644149       0.01294699      -0.22694358       0.11366016       0.60649305      -3.86296903
H        1.47246373      -1.64007950       4.39198494       0.64064997      -0.44973978       0.57694042      -0.17639980      -0.21255112       0.07898507      -0.14022988       0.02939811      -0.15379909       0.00393854      -0.05393699       0.06768479      -0.28068920       0.63215411      -0.47712364       0.59860453      -3.48819104
H        1.27178323      -0.94407094       2.88860416       1.35965502       0.37109017      -1.19557917      -0.09748703      -0.19407124      -0.05192359       0.07142259      -0.08219170      -0.48430807       0.22677082       0.02096950       0.31729808      -0.63017133       1.35430851       0.38410225      -1.25974827      -3.49310953
H        0.27289331      -0.67575049       3.87016606      -1.27010667       1.30585873       0.80307591      -0.11623393      -0.26808873       0.25071959      -0.24806912       0.18731446      -0.59002986      -0.00033110       0.02481300       0.11601602      -0.11888856      -1.33051160       1.37624368       0.82927077      -3.38495648
42
Properties=species:S:1:pos:R:3:original_dataset_forces:R:3:LES_q:R:1:LES_BEC:R:9:forces:R:3:energies:R:1 original_dataset_energy=-189.60488891601562 energy=-189.6818922836642 stress="inf -inf inf -inf inf -inf inf -inf inf" pbc="F F F"
O       -2.19221115      -2.98950505      -2.98930168       0.74853104       0.28860426       4.06326342       0.31927806       0.43380717       0.10642668       0.26268531       0.07366554       0.73569036      -0.09428620       0.36486204       0.16097729       1.40515916       0.79250671       0.27000139       4.00095656      -4.49607882
O        0.26116717       2.86740994       4.36722946      -1.03327155       0.24065463      -0.91173828       0.33610249       1.13791021      -0.63245800       0.17112840      -0.51286636       1.05387852       0.28994017       0.35296753      -0.07875612       0.85562481      -1.07751692       0.13271851      -0.94498814      -4.60662714
O        1.10802066       1.81000876       0.34259817       0.52984488       0.66754198      -0.17235751       0.20107940       0.66219796      -0.01576042      -0.15034442      -0.08344873       0.40403476       0.19619897       0.09142788       0.16866597       1.52351050       0.46083255       0.72285729       0.05919455      -4.66489324
O        0.14276707      -1.04147995       0.86162019      -0.16041473       0.65010577       0.15615915       0.26467577       0.86146370      -0.49015690       0.19117872      -0.31321183       0.80987192       0.04659218       0.24665515      -0.06423978       0.54192183      -0.22783949       0.70391511       0.17931375      -4.71638770
O       -1.29273295       4.51531601       4.08293295       1.12676561      -2.22534704      -1.14317620       0.41784817       0.86342282      -0.59402836      -0.10257312      -0.68950572       1.80029318       0.69477862      -0.14920543       0.63464545       0.99009659       1.14460225      -2.27762514      -1.11720811      -4.37887715
C       -1.93536675      -3.24911880      -1.74856281      -1.83597207      -2.20326471      -5.91392708      -0.03625780      -0.24725107      -0.29733397      -0.50717786      -0.40854872      -1.27453177      -0.27147242      -0.61874360      -0.46305046      -1.79709692      -1.83818978      -2.07954613      -5.93330817      -5.70031502
C       -0.69161427       3.44425726       3.73752785      -0.41823709       1.37959194       2.21772218      -0.02555271      -1.20511150       1.03315048      -0.35053208       1.01240840      -2.00604750      -0.93016910      -0.45403085      -0.57926692      -1.28532147      -0.47187862       1.68171865       2.19049516      -5.62553875
C        0.88154650       1.80190086       1.57851005       1.76361549      -1.95482826      -1.90188015      -0.08201033      -1.14007439      -0.25160209      -0.41693777      -0.06185951      -0.11751286       0.04676628      -0.23074223       0.19431389      -1.65361657       1.59652042      -1.92732089      -1.99891367      -5.58740218
C       -0.81737429      -0.38986450       0.47348276      -0.68836087      -2.30980563      -1.02989280      -0.07011649      -0.94591706       0.69594928      -0.29806689       0.59552499      -1.36464996      -0.37985042      -0.34550674      -0.34997598      -0.57510146      -0.70714557      -2.24032628      -0.94727553      -5.50595558
C        0.87402403      -0.89579284      -3.52855515      -1.51798713      -0.91527390      -1.88935077       0.01472949      -0.17225483      -0.00971853      -0.06074646      -0.08073253      -0.00336450       0.01102756      -0.12420357      -0.04664934      -0.02068042      -1.46082722      -1.00275741      -1.91327813      -5.53128301
C        0.30720115      -0.36480594      -2.42867947       0.47691408      -0.45476004       0.91747391      -0.04458678      -0.44284906       0.05081691       0.26215821       0.05591828      -0.14462274      -0.21273536       0.14233085      -0.12162649      -0.38847826       0.53734604      -0.40851506       0.91062717      -5.84462757
C        2.59863567      -0.26526481      -2.25024152      -4.25388479      -0.37641907      -0.95344049      -0.08280595      -0.17720842       0.01700855       0.04360490       0.04766785      -0.16809526      -0.19984465       0.25475630      -0.18313206      -0.58263233      -4.29959394      -0.31638855      -0.87456076      -5.79729663
N        2.23820829      -0.82279837      -3.43458319       0.01216970      -0.20980246      -0.28910699      -0.03549721       0.18492787      -0.04637136      -0.10119064      -0.08315890       0.08713735       0.31018350      -0.26465560       0.25052112       0.64347336       0.04195612      -0.35086844      -0.40795846      -4.95207138
N        1.85550475       1.81141043       2.48060632      -2.12327456      -0.01876122       2.46110821       0.10554599       1.11431414       0.13353555       0.49202351       0.04780387       0.19366217       0.01718259       0.03323772      -0.04456370       0.80916893      -1.96499132      -0.06463148       2.46321855      -4.64691654
N       -1.25364923       0.76722622       0.97209644      -1.09405947       0.58366311      -0.72446412       0.04634431       0.55170365      -0.13913959       0.08740932      -0.22759648       0.96415102       0.37530105       0.14416172       0.34153321       0.39665670      -0.94057642       0.71765914      -0.70849578      -4.81789239
N       -1.50465631      -2.46331453      -0.81618726       0.77968705       2.83131909       0.82775348       0.02247642       0.20798498       0.22790189       0.30449086       0.34354020       1.00183334       0.41054221       0.37466631       0.40188902       0.83336912       0.75244625       2.67120515       0.83688611      -4.78005721
N        1.37919188      -0.02456877      -1.63986909       2.49828506       0.60404575      -0.51924354      -0.04140301       0.21637581      -0.08020321      -0.11700883      -0.06927386       0.14251746       0.27249662      -0.14191150       0.27732084       0.45906527       2.45872578       0.65463203      -0.44507634      -4.70139551
C       -2.06555939      -4.69663143      -1.30733979       0.26080620      -0.38067797      -0.03566732       0.09768856      -0.12927776      -0.01083506       0.00598071      -0.00636796       0.07866792      -0.08045079       0.00734641      -0.07192801      -0.01794815       0.31659203      -0.38441497       0.00132062      -4.45868352
C        3.26659799       1.95376825       2.23392773      -0.16126926       0.95813078      -0.91374272       0.08039923      -0.38399245      -0.01342406       0.00737566      -0.01715538      -0.16820635       0.04606226      -0.00371204       0.03864735      -0.12882900      -0.14193674       0.94199683      -0.93003307      -4.67892453
C       -1.23156023       2.78138852       2.45003653       3.81996417      -1.50249672      -0.74062926       0.06471974      -0.08656883       0.21795805       0.34394858      -0.04850040       0.01785721       0.17402613       0.08652725       0.24274731       0.27628671       3.74402522      -1.78088973      -0.74249007      -4.54029270
C       -1.12668109      -0.16697519      -1.99803698      -0.69866788       0.21693225      -0.95793599       0.05053651      -0.14767465      -0.05087317      -0.16093356      -0.03066931      -0.07075962       0.01721961       0.13452561       0.04890277      -0.07164739      -0.73598186       0.22127126      -1.02481736      -4.70965003
C       -0.50053209       1.44003737       1.98189116      -0.34983259       0.50113183       4.03455687       0.00399657      -0.34926406      -0.07188375      -0.26868940       0.05245640      -0.44724058      -0.25595260      -0.25438297      -0.19284109      -0.29345912      -0.40294511       0.61718269       3.92385187      -4.93222884
C       -1.63213003      -0.99795842      -0.77155697       0.85018945       0.94875950       0.91844630      -0.01462741      -0.07729741      -0.00607421       0.11727722      -0.05617256      -0.66382436       0.06905605      -0.10424629       0.00499176      -0.26513033       0.84959788       0.90031733       0.92811051      -4.86523733
H        0.31715131      -1.33341420      -4.38986349       0.97159117       0.40005854       0.88161927      -0.07190593      -0.06233327      -0.01623453      -0.02298971       0.00515577      -0.07257454       0.00046421       0.02004417       0.04567554       0.02937850       0.94215778       0.44937260       0.85595057      -4.12507044
H        3.57899356       0.03580463      -2.00606537       0.54630464       0.14693207       0.64921027      -0.08568014      -0.01620557       0.01174177       0.01958226       0.02081469      -0.08280255      -0.00218546      -0.01260464       0.00153905      -0.07229808       0.57744311       0.16610948       0.64035944      -4.12467068
H        2.78094745      -1.17690504      -4.22595549       0.25710437       0.43051139       0.97674978      -0.19399789      -0.21901005       0.03212833       0.07320840       0.08312985      -0.22430564      -0.10878933       0.17100832      -0.07164981      -0.43288220       0.29572891       0.44033713       0.94860673      -3.66435109
H        1.47395992       1.74992299       3.49289584       0.59866369       0.90552992      -1.88497126      -0.15940538      -0.37599319       0.20308231       0.26366625       0.15396034      -0.34980207      -0.17687688       0.21643452      -0.13278476      -0.41294694       0.56106881       0.88051629      -1.86559384      -3.64765188
H       -2.14559102       1.19818604       0.65158367       1.37750268      -0.64988536       0.30204219      -0.20007093      -0.32182477       0.11159250       0.08992043       0.03837232      -0.16390957       0.03327439      -0.02580538       0.09522789      -0.10497623       1.39389255      -0.71741450       0.27255865      -3.57911297
H       -1.21271467      -2.96662402      -0.01418456       0.34194940       0.37998942       1.05092263      -0.20085387      -0.19763332       0.02264039      -0.01812251       0.02760235      -0.06735523       0.06297360      -0.01716933       0.03849831      -0.25404051       0.30896647       0.36571794       1.02677235      -3.50027004
H        1.27365661       0.57887518      -0.81739944       0.16548108       0.32565585       0.84667045      -0.09280828      -0.10189845       0.03066455       0.04806301       0.09804178      -0.35365473      -0.34032345       0.08431874      -0.23252986      -0.40314765       0.12503934       0.27190934       0.72543762      -4.08179628
H       -2.37965393      -5.31901932      -2.13357568       0.22989142       0.10614731      -0.28917930      -0.04453073       0.00591840       0.04509573       0.02295983       0.07404456       0.16452987       0.07570458       0.02253715       0.05855470       0.03524708       0.20399452       0.11937286      -0.27728798      -3.97266389
H       -2.79580307      -4.89209509      -0.52683389       0.00152174       0.47109360       0.26553914      -0.04860249       0.01666404      -0.01677286      -0.05310489       0.03467106       0.00619271      -0.02359018      -0.06735630      -0.03662816       0.03235465       0.00740541       0.46916640       0.27144916      -3.99999843
H       -1.09038699      -5.03301907      -0.94501185      -0.11291012      -0.14807081      -0.01186311      -0.04820566       0.04989983      -0.02940883       0.02213927      -0.02630453       0.01374043       0.00029894       0.01946099      -0.02722695      -0.01308200      -0.12704039      -0.13380145      -0.00292691      -3.95836104
H        3.51186061       3.08305407       1.90824223      -0.16857222      -2.79456592       0.69958985      -0.05217997       0.00586147       0.00774164      -0.02274628       0.15731064       0.14788511       0.01963309      -0.05444532      -0.05966865      -0.03749686      -0.15812935      -2.78741981       0.67695249      -3.98392656
H        3.45749259       1.17928755       1.45444405       0.59219658       1.03456485       0.22154072      -0.04824853      -0.00287840       0.02105263      -0.01946037      -0.08787093      -0.03449540      -0.00098724      -0.06855285       0.02429082       0.01214494       0.60879920       1.07243429       0.23581716      -3.95430646
H        3.75790811       1.62477612       3.16693640       0.04221688       0.62211639      -0.62919718      -0.06030633       0.04004818      -0.01679844       0.01175799      -0.07375479      -0.05176089      -0.06011302       0.09869948       0.00890463       0.04955248       0.04627871       0.60587835      -0.62405440      -3.98063881
H       -2.22029424       2.52835631       2.47975230      -2.74230242       0.12677063       0.13095012      -0.06252483       0.19862344      -0.14567952      -0.12854094       0.03083847      -0.00001074       0.00720315       0.05478553      -0.04475252      -0.07026406      -2.65716187       0.16431141       0.16252425      -3.92358170
H       -0.89473528       3.36704302       1.62039256      -0.91793138       1.25355923      -0.46049908      -0.05764332       0.01041012      -0.06058972      -0.10112049      -0.02959151       0.12141559       0.07069039       0.01915192      -0.16466534      -0.04246024      -0.82987222       1.15240066      -0.42137218      -3.78185386
H       -1.22308874       0.91472828      -1.76123273      -0.03000750      -0.71632284       0.18015978      -0.05578149       0.01698960      -0.01860779      -0.04413401      -0.01373822       0.13587382      -0.00282815      -0.07161588       0.00520245      -0.04890142      -0.00786657      -0.75874962       0.15115259      -3.95250305
H       -1.80789590      -0.32070127      -2.87283325       0.82855934      -0.17988110       0.71834379      -0.05276385       0.08851671      -0.00467980       0.02739604      -0.00886001      -0.07509330       0.01378495       0.03642579       0.00328285       0.10036482       0.79220247      -0.14796744       0.78680127      -4.03718315
H       -0.36365530       0.75443947       2.86598015      -0.45849732       0.62781131      -0.80323726      -0.03941879       0.00790312       0.02326527       0.09951481      -0.01545797      -0.01144490      -0.10846126       0.05174174      -0.07542266      -0.02612561      -0.41553555       0.65026546      -0.74677902      -3.76811649
H       -2.68694735      -0.79734206      -0.59681898      -0.05839460       0.33876851      -0.34436503      -0.06389542       0.12757517       0.02688164      -0.02304941      -0.00828116       0.03683224      -0.01248462      -0.01918260      -0.00497359       0.00518764      -0.09309958       0.33536931      -0.32193918      -3.87188628
46
Properties=species:S:1:pos:R:3:original_dataset_forces:R:3:LES_q:R:1:LES_BEC:R:9:forces:R:3:energies:R:1 original_dataset_energy=-198.40672302246094 energy=-198.40372855361153 stress="-inf -inf -inf -inf -inf inf -inf inf inf" pbc="F F F"
O        2.69559622       2.72467732       1.78018439       0.33060020       0.92168969      -0.39046371       0.29059970       0.83177717       0.35441741      -0.20766146       0.13172089       0.76533888       0.24627825      -0.55478507      -0.16969316       0.77170124       0.25612965       0.80777296      -0.48494382      -4.53299452
O       -1.64343190      -2.03566885      -2.16497612      -0.01551700      -0.09857247      -1.56007421       0.25832972       1.03561070       0.18951801       0.05462793      -0.03498111       0.48523406      -0.00674644       0.02616501      -0.01815719       1.39811674      -0.11518609      -0.06062981      -1.36063723      -4.82587008
O       -0.69707727       1.05185127      -1.69682062       0.89097315      -0.16659449      -0.30932012       0.26794130       1.42285912      -0.08212624       0.15350603       0.06254596       0.49672374      -0.11170807      -0.11344204      -0.12094172       0.62800225       0.89385639      -0.19703532      -0.44321883      -4.63128060
O       -0.94426334       2.18945384       1.15938854       1.20286095      -2.10202527       1.10480011       0.33213639       0.62085625      -0.26161113       0.07532381      -0.03179281       1.32372618       0.19105273       0.17555359      -0.19894882       0.48922468       1.35031173      -2.16460526       1.10281553      -4.37579064
O       -0.98423028      -2.59782100      -0.11931840      -0.30292624      -0.45111406      -0.14276014       0.29961556       1.23305021      -0.07865071       0.46987499      -0.38451477       0.59768291      -0.18193071       0.22431835      -0.05745327       1.18408642      -0.12474713      -0.50353503      -0.10287708      -4.79330117
C        1.94787180       2.73586011       2.74404240       2.66708517       1.81664693      -1.57338226      -0.06732149      -0.97369745      -0.71328344       0.40502560      -0.76421013      -1.47652974      -0.46235622       0.68225421       0.07525092      -0.87204380       2.57779368       1.69278651      -1.38107624      -5.87504331
C       -1.79200470      -2.09789872      -0.93586147       0.45315856       0.28213802       2.20457721      -0.03451340      -1.22052969       0.19735512      -0.33203906       0.65593105      -0.50575064       0.20969095      -0.03718221       0.28866723      -1.76259819       0.29205594       0.37647811       1.91442064      -5.44159784
C       -1.85920262       0.87992901      -1.41870260       1.01108027      -0.75274009       0.54021323      -0.08671633      -1.85764236       0.19555820      -0.38615710       0.06038221      -0.34688677       0.41181024      -0.26322852       0.44242506      -0.91622450       1.02712861      -0.75120631       0.62077262      -5.70665591
C       -0.54951167       1.00834203       1.41585791       1.07376289       7.29914236      -1.30257797      -0.07779381      -0.71515075      -0.09285621      -0.48514247      -0.10922376      -1.63981510      -0.25197398      -0.41672499      -0.05918280      -0.40665650       1.05751114       7.38934707      -1.14586037      -5.49857238
N       -2.84893012       1.30404210      -2.22825050       4.02230024       1.13247752      -1.90623009       0.08709963       1.03031676      -0.19678521       0.38319011      -0.19628579       0.26025833      -0.28119309       0.43989689      -0.29667450       0.77469311       4.10474619       1.00991493      -1.95646295      -4.75863816
N       -1.19145191       0.02405691       0.94160938      -2.77542543      -4.03106928      -2.76858687       0.06506340       0.48975486       0.34858999       0.39920254       0.24600477       0.82682766       0.06982367       0.28569254       0.20830945       0.40335168      -2.75045373      -4.05510801      -2.71381409      -4.64103004
N        1.23225594       1.68271089       2.98909807      -2.75193310      -1.00948370       3.87694240       0.05338195       0.51763619       0.34409981      -0.15877239       0.47645625       0.85528292      -0.02031115      -0.16971806       0.12533385       0.45410984      -2.76120505      -0.76068773       3.66839976      -4.64064110
C        1.83065426       3.92831969       3.66752958      -2.08196259      -0.89866745       1.31735778       0.08508259      -0.07058897       0.02675164      -0.01458350      -0.02511967       0.00608509       0.13993122      -0.03040632       0.16842424       0.02220630      -2.18485854      -0.92744608       1.30441425      -4.46593061
C       -2.62905836       1.49739289      -3.67998648       0.96167600      -0.33688867       0.29914442       0.08415145      -0.18144757       0.01925429       0.04815097       0.09586038      -0.20299943       0.15331948       0.05125794       0.04391887      -0.41367628       0.92798585      -0.22942620       0.34268458      -4.57229446
C        1.79349411      -1.52875614       0.91157579       0.14088522      -0.59051138       1.62498236       0.11412857       0.00652521      -0.14353926       0.09288974      -0.07876176      -0.07278600      -0.02916956       0.08330968      -0.08258322      -0.04699589       0.33135412      -0.54466080       1.58904236      -4.72281111
C        2.46705294      -2.18945360      -0.32219809      -1.69520295       1.47123897      -0.53616017       0.09271487      -0.05044232      -0.10892847      -0.03716487      -0.04932323      -0.15116583      -0.11352718       0.03945059      -0.10996021      -0.24669398      -1.57797398       1.50144308      -0.46723768      -4.95002275
C       -2.90210128      -1.20489120      -0.36338592       0.75180972      -2.41381812       2.42638230       0.06679472      -0.09492822      -0.20505122      -0.10394970      -0.26958795      -0.05588653       0.01042812      -0.24823239      -0.03839508      -0.07623867       1.04797369      -2.47518149       2.43866862      -4.60118992
C        1.87932336       0.00464115       1.17406702      -1.06170249      -0.73468840      -1.13388264       0.10781343      -0.05351904       0.01115324       0.10989165       0.07389575      -0.14702018       0.00857137       0.07041575       0.02393330      -0.02240454      -1.11249617      -0.68825091      -1.03043006      -4.60102803
C        1.70884812      -2.92262721      -1.42299831      -3.14385676       0.82197177       2.25387764       0.02056853      -0.31171116      -0.02692862      -0.26495103      -0.05920720      -0.05177955       0.28877316      -0.05924405      -0.01098963      -0.53618128      -3.11786221       0.81719598       2.24746569      -4.76958977
C       -2.25118256       0.12193462      -0.13388693      -1.27046156       2.41127682       3.05009794      -0.02361487      -0.44566022      -0.08761115      -0.20160574      -0.15820385      -0.20879785      -0.01103981      -0.16715207      -0.06762733      -0.29606600      -1.41068002       2.41131974       3.09839222      -4.89244250
C        0.76611066       0.69831973       2.10834074       0.03608987      -2.94489455      -0.68545443      -0.00044932      -0.28215266      -0.15859298      -0.10295969      -0.04295034      -0.17586067       0.02773528       0.10725778      -0.13827000      -0.12850057       0.11946891      -3.14581083      -0.50997902      -5.12680097
N        0.92704570      -2.05964589      -2.43008518      -1.30815387      -1.97651684       1.85334527      -0.05402777       0.50491429       0.04308252       0.07136755       0.05510128       0.02454520      -0.28888532      -0.00465151       0.12850838       0.43735819      -1.39970312      -1.95993943       1.72273802      -3.63679610
H       -3.72571993       1.09306145      -2.04432440      -4.76506853      -1.27970707       1.47302353      -0.19123673      -0.45335100       0.06762849      -0.15315854      -0.03515160      -0.18861230      -0.01535445      -0.00933658       0.01692875      -0.13593721      -4.86385665      -1.28753295       1.49929778      -3.48172366
H       -1.07064712      -0.89981669       1.31290257       0.34481439      -0.38849711      -0.45636228      -0.18680315      -0.09935204       0.05627071      -0.00754232       0.01495315      -0.36389059      -0.10740926       0.10734088       0.00570856      -0.23934298       0.32974078      -0.36602215      -0.59265898      -3.53592043
H        0.75316322       1.73888874       3.90688133       0.22897291      -0.30050007      -1.31624043      -0.20258054      -0.17960907       0.09263763       0.14514257       0.07028485      -0.07840034       0.08839300       0.04351132       0.01176900      -0.26853937       0.22015831      -0.27398075      -1.27010926      -3.44627064
H        2.72144437       4.44696760       3.84343243       1.67956376       0.12854789       0.29590085      -0.05192377       0.08376692       0.10790544       0.09546119       0.09499810       0.10254869       0.09734201       0.04181005       0.05739829       0.03262598       1.70063631       0.10103588       0.26349248      -4.00185183
H        1.32451248       3.67171931       4.68385410       0.73310679       0.60893142      -1.85843277      -0.04205537       0.00085365      -0.00274923      -0.07122959       0.00283796      -0.01377782      -0.02175287      -0.03507930       0.00267913       0.11831323       0.76051029       0.59374324      -1.90473452      -3.99683568
H        1.26717281       4.66664600       3.10405111      -0.63664323      -0.10348836       0.16557430      -0.04797254      -0.02133028      -0.09515320      -0.03499321      -0.02388259       0.11044649       0.02225602       0.00039081      -0.09369208      -0.04986450      -0.59655703      -0.06520301       0.19069657      -3.86752302
H       -3.48402190       2.08959675      -4.02607012       0.34750995      -0.34964502      -0.23988603      -0.06087106       0.05004442      -0.05120119       0.07956800      -0.05636717       0.01711173      -0.07612578      -0.01106605      -0.01917396       0.03381377       0.32042704      -0.35105749      -0.28427512      -4.01245519
H       -2.54850388       0.47793323      -4.18231058      -0.19139619       1.40920007       0.43491858      -0.05278308      -0.01166018      -0.01038079       0.00199354      -0.00419779       0.02717751       0.05849652      -0.01026219       0.03462339       0.03225316      -0.16196764       1.41762438       0.41844176      -4.04718607
H       -1.67846477       2.07250023      -3.85149336      -1.06585896      -0.65032530       0.23359223      -0.04464078      -0.00098959       0.06584712      -0.11438926      -0.02989862       0.03547694      -0.08778415      -0.01883935       0.00076099       0.00190896      -1.02846011      -0.68730128       0.21509450      -4.02281200
H        2.35909653      -1.89303350       1.74225032       0.38149190      -0.77076107       0.61902642      -0.06404884      -0.02902619       0.01200846       0.02177945       0.01837035       0.00538554       0.00190782       0.00976186      -0.00085491       0.06853082       0.31493597      -0.71557893       0.53829439      -3.65332812
H        0.82435393      -1.89056659       1.12841153      -1.07933295      -0.47927794      -0.43344948      -0.03601508      -0.02895571       0.06655833      -0.16702444      -0.00852807       0.01215554      -0.02708302      -0.14753873      -0.03607617      -0.03426561      -1.15726722      -0.52145256      -0.46311417      -3.94147697
H        3.17584109      -2.90517974      -0.05471134       1.18206322      -1.04532886       0.94230527      -0.06601108       0.03458706      -0.01184227       0.03008592      -0.05760699       0.05215754       0.02345330      -0.02042885       0.05915100       0.01587523       1.15480499      -1.02356253       1.06015234      -3.76983704
H        3.00221467      -1.41080117      -0.77224249       1.21892798       1.19787526      -0.89382774      -0.06691948       0.04653131       0.00068545      -0.04331090       0.06847724       0.04230731      -0.01261624      -0.01681744      -0.03425960       0.02144518       1.18302780       1.19930918      -0.91647034      -3.75037222
H       -3.49198151      -1.69160080       0.52948385       1.52024686       1.22269511      -1.45735681      -0.04010719       0.20440909       0.07775608      -0.05813579       0.11855967       0.06491426      -0.02231396      -0.22263171      -0.09071783       0.07279066       1.53365203       1.24815879      -1.41796730      -3.98857113
H       -3.53196263      -1.15297985      -1.15303278      -2.39448285       0.60465336      -2.16747117      -0.06163328       0.06796028       0.02411360       0.09127313       0.01993620      -0.00788679       0.00686900       0.19802763       0.02328631       0.03853367      -2.38107518       0.64059271      -2.29791246      -3.73527303
H        1.84771502       0.32846433       0.16135061      -0.25075054       1.57998884      -0.53184211      -0.06149973      -0.01380853       0.00201024      -0.05181578      -0.00468449      -0.01383844      -0.02981441      -0.05437904      -0.05458633       0.04707458      -0.24263000       1.55114786      -0.58101583      -3.84480075
H        2.88115573       0.13728479       1.50839746       0.36679173       0.86414522       0.60685545      -0.04970372       0.17526563       0.04010415       0.10231854       0.06695934      -0.04037623       0.01327836       0.01953985       0.01419036      -0.01429659       0.41895762       0.82076545       0.61871697      -3.93808371
H        2.34211254      -3.50841761      -1.98294759       1.52309525      -1.15158474      -1.23742580      -0.07509902       0.01364879      -0.03864714      -0.03331056      -0.05052978       0.07984922       0.09661878      -0.05288235       0.11123981       0.06833813       1.50604797      -1.20446973      -1.19780269      -3.89728702
H        0.95303810      -3.59659076      -0.86806452       0.78021455       1.21366179      -1.45432329      -0.03237990      -0.03950972       0.05590856       0.02863459       0.16375292      -0.07645406      -0.13165839      -0.01806074       0.03380232       0.07679398       0.84068305       1.23738272      -1.48845897      -3.84418562
H       -3.00306726       0.79353267       0.36825544       0.40210214      -0.45994782      -0.69433886      -0.04872187       0.04273866      -0.03311866       0.02935023       0.10246183       0.11816014       0.02213822       0.07074083       0.03328088       0.03340182       0.37972435      -0.44457112      -0.59187386      -3.71270256
H        0.33045527      -0.08080828       2.74443674       0.93082404      -0.46021250       0.42753619      -0.06070646       0.01591319       0.07205242      -0.03739899       0.05571384       0.05610925      -0.01028265      -0.03610943      -0.02009307      -0.05327899       0.89402312      -0.35514882       0.35058881      -3.48963751
H        0.47342911      -2.67187333      -3.08497620       0.25753120      -0.53315198      -0.74686885      -0.18268918      -0.36641991       0.00782732       0.08360855      -0.01537288      -0.27962706      -0.08867740       0.02693528      -0.13002071      -0.27766490       0.31284097      -0.56813527      -0.75521089      -3.27389646
H        1.32149816      -1.30671775      -2.90503407       1.57428157       1.38452005      -0.70051879      -0.17230265      -0.19489821      -0.10470473      -0.03347292      -0.05798605      -0.25547013       0.01965772       0.03532148       0.05636984      -0.15497128       1.61516162       1.39099958      -0.63160891      -3.48564949
H        0.00135785      -1.72297716      -2.08372188      -0.22149123       0.11148576       0.73963141      -0.09659360      -0.73263890       0.02466762       0.12850268      -0.10683558      -0.01189303       0.18188890      -0.02075332      -0.11760835      -0.27210798      -0.48466822       0.12052163       0.78516078      -3.42732114
48
Properties=species:S:1:pos:R:3:original_dataset_forces:R:3:LES_q:R:1:LES_BEC:R:9:forces:R:3:energies:R:1 original_dataset_energy=-211.84266662597656 energy=-211.90485854537687 stress="-inf -inf -inf -inf inf -inf -inf -inf inf" pbc="F F F"
O        0.97813928      -0.55166572       3.38333559       1.04978895       0.89448339      -0.00194983       0.23970808       1.17398275       0.29152186       0.17276367       0.40825002       0.66352535      -0.23161296      -0.07537161      -0.29518566       0.80190969       1.06959017       0.88958745      -0.03316351      -4.76141040
O        2.52438855      -1.77470541      -1.12496448      -0.36735365      -1.36522758       1.15416574       0.28572518       0.82585768      -0.01968940       0.39937294       0.01381894       0.94808349       0.06492817       0.28629103      -0.25149177       1.29505021      -0.38564180      -1.37630870       1.11692902      -4.70374046
O       -0.52562273       0.94816089      -2.13024545      -0.67798495      -0.26337415      -0.82687545       0.20058933       0.51893443       0.15217191       0.36923640       0.28552529       1.02616104       0.52536847       0.37620907       0.30050467       1.09029743      -0.68702047      -0.27194907      -0.85048513      -4.78410748
O       -2.54105163      -1.26343369      -0.11404425      -0.83206284      -0.07333145      -0.22719757       0.26728266       1.40570090       0.17662827      -0.12068736       0.17797067       0.45646444       0.12084230       0.24513636       0.20561781       0.55814471      -0.90004189      -0.04262422      -0.22416141      -4.66195138
O        2.48706245      -0.41723984      -2.81370664      -0.92619574      -0.42416674      -0.76015520       0.34491041       0.76357417       0.28590448      -0.30386102       0.34342899       1.28893751      -0.42471731      -0.14793774       0.00479997       1.21426821      -0.96577807      -0.41274376      -0.69350352      -4.49826422
C       -0.07498826      -1.12915504       3.55416298       0.65315104      -0.80705357       0.92992604      -0.07222587      -1.52455158      -0.31765618      -0.78319124      -0.47377557      -0.53672324       0.44491803      -0.38954300       0.45354359      -1.36428777       0.61505034      -0.78058895       0.88168659      -5.88208056
C        2.03763390      -1.43681800      -2.21761274       0.88339084       2.15028453      -0.56826824      -0.07085949      -0.97704807      -0.50945580      -0.43704478      -0.50886082      -1.21631800       0.75485913      -0.25082992       0.61075498      -1.66782255       0.89146319       2.11320015      -0.62138486      -5.55119916
C       -0.74583399      -0.07101643      -2.78563142       0.16009407       0.66455114       1.05605495      -0.07754721      -0.36396860      -0.07537597      -0.62714579      -0.13584193      -1.12705131      -0.33491768      -0.63755226      -0.28868702      -1.66069115       0.18517299       0.52914575       0.97152261      -5.65138492
C       -1.37862515      -1.05129099       0.14626664      -0.24781434      -0.04651863       0.41548520      -0.07660272      -1.86547787      -0.21594161       0.39824650      -0.11608190      -0.28711202      -0.32128309       0.16022600      -0.35435083      -0.94991356      -0.22881111      -0.11698700       0.41841311      -5.74606493
C        2.02424812       1.18363833       0.39161795      -1.15022683       0.28330165      -0.80178183      -0.03353592      -0.83645162       0.52380811       0.01061053       0.66949543      -0.79641403       0.16155498      -0.12724558      -0.02146547      -1.51750627      -1.08785535       0.34953553      -0.76353387      -5.79541930
N        1.74475658       1.48060918      -0.87354326       0.78441191       0.26374322       0.34042710       0.11082035       0.47269423      -0.20761829       0.23531697      -0.07719606       0.42923093      -0.16036694       0.23966538      -0.09158186       0.89662405       0.71931723       0.22692378       0.60690367      -3.85384057
N       -1.25477958      -0.05845875      -4.03078794       0.06068539       0.45179021       0.16558270       0.07861456       0.26229895       0.01028919       0.39478061      -0.06142389       0.51118180      -0.10657187       0.39761504       0.05879717       1.15540826       0.07978899       0.47143110       0.19540006      -4.82890330
N        1.46300519       1.75618172       1.44127607      -1.36435795       1.84130609       0.32645914       0.06571571       0.61878139      -0.28365502      -0.20899236      -0.40436787       0.39370437       0.15791988      -0.29261119       0.13470783       0.85597241      -1.20760524       1.97401960       0.32347473      -4.44123311
N       -0.35580197      -1.33212614      -0.67026883       1.01989031      -0.06027312      -1.39368331       0.10480390       0.84634431      -0.06236295      -0.25916147      -0.18464960       0.28203177       0.20436334      -0.37301917       0.25458585       0.97525314       1.03172934      -0.04887836      -1.30328196      -4.57858276
N       -1.05151963      -1.10021138       2.65807390      -2.27173901      -0.62737566      -1.09106243       0.07689416       0.72609879       0.05176234       0.49029733       0.04313904       0.41226258      -0.28596962       0.40249998      -0.26974799       1.06694884      -2.31010644      -0.69416541      -1.05598005      -4.64779773
N        2.83905602       0.21062905       0.66963917       1.73253989      -1.05142224      -0.36475471       0.08279410       0.56471359      -0.29957105       0.17310262      -0.24778640       0.65646602      -0.04750094       0.35912291       0.04016382       0.57605294       1.85247754      -1.07151110      -0.28516064      -3.84843301
C       -0.29467064      -2.00947881       4.77606010       0.03101555       0.08899307       0.15590864       0.09119535      -0.05392181       0.04782631       0.03235890       0.07286497      -0.00961037      -0.16931572      -0.02330608      -0.16436024       0.09099847       0.03155023       0.07741245       0.15689593      -4.37502408
C       -1.60811770       1.18415534      -4.74128866       1.00109422      -0.58936113       0.55961162       0.07708535      -0.15407133       0.06232598      -0.01679432       0.04806093      -0.34712803       0.06289762      -0.08045662       0.13908331      -0.33050836       0.97764688      -0.58017855       0.55686805      -4.84410468
C        0.30455244       2.67761278       1.44624639       0.26284206       0.28893685       1.78453970       0.03031483      -0.37131398       0.17121064       0.03139662       0.17222121      -0.34628994      -0.03396387       0.02233693       0.10890159      -0.09706200       0.18169597       0.37341204       1.73674174      -4.91734548
C       -0.90698916       2.12789130       2.27774048       0.93241364      -0.54979187      -0.63709366       0.09986582      -0.20494555      -0.08435580      -0.00316248      -0.13551991      -0.16334019       0.08863135      -0.00696965       0.04655075      -0.16159987       0.84559817      -0.53373451      -0.66229165      -4.68315973
C        0.76658601      -2.12793922      -2.72862935       0.48743320      -0.53162557      -0.17705920       0.06424079       0.05298725       0.13243860       0.16101180       0.11014942       0.02262006       0.01820962       0.08655460       0.02395142      -0.01619519       0.55728782      -0.53926205      -0.14916242      -4.61121593
C       -1.64783597       1.03556120       1.49011922       0.18356779       0.45335928      -0.04584232       0.09715989      -0.10575904       0.00343866       0.02474124       0.02997885      -0.15218613      -0.05761519       0.02456076      -0.08132367      -0.09683721       0.27228192       0.48217998      -0.06623491      -4.70093946
C       -0.48241878      -1.45514965      -2.14658856       0.61242491       0.17153385       0.96672851      -0.02224138      -0.22760439       0.16655563       0.16035699       0.06306867      -0.19244840      -0.08593855       0.04819583      -0.15388009      -0.74255720       0.57328968       0.22124337       0.93693764      -5.10143332
C       -0.95292610      -0.33059061       1.41771913       0.48677716       0.15313084       0.15298778      -0.01496811      -0.13255076       0.10149091       0.00804529       0.10107520      -0.29911609       0.28147084       0.03224781       0.27577238      -0.36651884       0.72394112       0.25963719       0.03353231      -5.09499406
H        0.84539783       1.82156038      -1.15812755      -0.11354108       0.03586659       0.11826179      -0.12624951      -0.45007702      -0.05318955      -0.18454234      -0.08475917      -0.26062155      -0.05354842      -0.11981582      -0.02696008      -0.27352155      -0.16967420       0.06393436       0.05780888      -3.66323356
H        2.22352672       0.93240511      -1.59717155      -0.17968787      -0.24266142      -0.06497175      -0.09219940      -0.11097935       0.12823193       0.06996463       0.01269328      -0.45804228      -0.25479151       0.16192936      -0.30997119      -0.44012952      -0.15128495      -0.19669006      -0.23971575      -3.81960383
H       -1.40135396      -0.94572997      -4.45330143      -0.16971830      -0.29808757      -0.39149171      -0.19464323      -0.20797226      -0.03409228      -0.08235831      -0.03393266      -0.22825920      -0.07534904      -0.03485933      -0.05260965      -0.30951649      -0.16009183      -0.29394794      -0.39183696      -3.60228819
H        1.80955565       1.42152548       2.31631589      -0.39503071      -0.09630153       0.43167222      -0.17613818      -0.14756989      -0.05227865       0.01664263      -0.04361855      -0.23752365       0.09918553      -0.06300482       0.00618133      -0.34639375      -0.37700637      -0.10335796       0.47596983      -3.66582345
H        0.59726477      -1.26425934      -0.30818900      -0.41566926       0.00456441      -0.43180421      -0.17474879      -0.45279164       0.04729645       0.02628869       0.02542678      -0.23805873      -0.00151604      -0.00246286       0.00424151      -0.15130992      -0.34403457       0.00399717      -0.37015440      -3.67553594
H       -1.84122527      -1.75126624       2.76922226       0.65563709       0.81172502      -0.10175434      -0.19914435      -0.24987128      -0.05433775       0.01717541      -0.05114404      -0.20466310      -0.02330069       0.01535579      -0.03747108      -0.14171435       0.64062799       0.77781835      -0.12332923      -3.60531825
H        3.07232404      -0.44076613      -0.09579098      -0.01294057      -0.30045539       0.24061853      -0.08379476      -0.20348911      -0.08878102      -0.08615405      -0.06631110      -0.52540663      -0.36052690      -0.14590193      -0.33093839      -0.41643956       0.01060539      -0.35065476       0.19105732      -3.82068915
H        2.93899226      -0.06372085       1.62747502       0.09062354      -0.26230657       0.00960520      -0.15270987      -0.24634530      -0.02556629      -0.08924157       0.00308697      -0.14263127       0.07686608      -0.07844581       0.06365936      -0.32158231      -0.05239236      -0.30431362      -0.00850752      -3.65490257
H        0.65016377      -2.07671499       5.33271217      -0.43117100       0.34433064      -0.14878210      -0.04574280       0.04928581      -0.02831309       0.09622811      -0.01836687       0.00456289      -0.03936920       0.04555342      -0.04509440       0.12268957      -0.42326516       0.34632410      -0.15004576      -3.99596197
H       -0.45800936      -3.02848005       4.39147615      -0.57470381       0.32483801       0.46117079      -0.05058333      -0.01339233       0.00146855       0.02041204       0.02069992       0.06561773       0.03634716       0.02069227       0.05844582      -0.07231624      -0.56086110       0.35692867       0.46103993      -3.96722551
H       -1.10530400      -1.58734095       5.43205023       0.68724936      -0.81878150      -0.72893512      -0.05285304       0.03512423      -0.03540032      -0.02588284      -0.03266699      -0.03187515       0.05861616      -0.05857254       0.01262562       0.04989237       0.68705959      -0.82105156      -0.72295384      -4.06638099
H       -1.81248462       0.97919130      -5.77769375       0.15070312      -0.20821200      -0.29792482      -0.05892279      -0.01353574      -0.01048217       0.03002243      -0.00943947       0.00051514      -0.02197863       0.04977399      -0.03791746       0.13992330       0.13836064      -0.21916665      -0.29473692      -3.99400641
H       -0.77526271       1.88269639      -4.63815022      -0.18179810      -0.08243086      -0.15370783      -0.04615656      -0.00356490       0.06297853      -0.08375831       0.02475668       0.06573635      -0.01357501       0.02782538       0.00165036       0.00991151      -0.19460874      -0.06909558      -0.14031965      -3.98788513
H       -2.48191905       1.62341595      -4.31803989      -0.61346930       0.33148554       0.43475935      -0.05700377       0.06191730      -0.07041751       0.07952654      -0.04598706       0.03404217      -0.02882544      -0.03969750       0.00636316      -0.00598203      -0.60505833       0.34100483       0.44110709      -3.99356780
H        0.03123015       2.90163207       0.43827075      -0.26209158      -0.06922764      -0.58978695      -0.05664006       0.05238230       0.07073696       0.00685892      -0.01616558      -0.02363506      -0.04705872      -0.01717906      -0.09484269       0.07409365      -0.27216665      -0.08896669      -0.56147108      -3.93334458
H        0.58608139       3.64742661       1.90277481       0.17697620      -0.53348064      -0.27590588      -0.06200134       0.01690844       0.02797538      -0.01338604       0.06455647       0.21615735       0.08173031      -0.00635034       0.01226319      -0.01421294       0.20733468      -0.56154470      -0.29733027      -3.89651537
H       -1.62824833       2.92506337       2.49642277       0.42429864      -0.03002173      -0.12624606      -0.06082885       0.07588808      -0.00179773      -0.01663770      -0.02963870       0.09542439       0.05283178      -0.06033520       0.05583821       0.05170224       0.42902333      -0.05278931      -0.14216033      -3.97353531
H       -0.52537107       1.73656273       3.23598051      -0.17949097       0.22549041      -0.31602204      -0.05012631       0.01822121      -0.00352701       0.03308764       0.02510043      -0.02802303      -0.06820953       0.06662978      -0.01399741       0.09410953      -0.17062133       0.20546271      -0.31503353      -4.04330380
H        0.80771148      -3.18000340      -2.42043543      -0.18489797       0.31657168       0.04562748      -0.05303921       0.02198347      -0.01930817      -0.02175780      -0.01118177       0.16939109       0.03824283      -0.00355170       0.00297783       0.02173423      -0.19129269       0.33312578       0.07175682      -3.94232365
H        0.70843452      -2.11169457      -3.82525516       0.12876551       0.18421514       0.35905877      -0.05362039       0.03968508       0.02089337       0.05254514      -0.00732163       0.01589901       0.04286887       0.00136120       0.04865690       0.20123366       0.09900905       0.20325845       0.36518070      -4.00447322
H       -2.59145951       0.89285457       1.99472761      -0.53450775      -0.12083963      -0.36525264      -0.06306961       0.12770688      -0.00615816      -0.04265280       0.03825591      -0.00584989      -0.03067488      -0.01875837      -0.01105036      -0.03747842      -0.54860022      -0.07302849      -0.30160705      -3.92003490
H       -1.77766705       1.44967091       0.46737474      -0.29563096      -0.57078522       0.57304668      -0.05130443       0.00028684      -0.02392766       0.06887372       0.00775263       0.05775601      -0.06016238       0.01298540       0.01131224       0.13133449      -0.31514399      -0.61109049       0.56732493      -3.98142582
H       -1.31183040      -2.08374310      -2.35687137      -0.86402327      -0.47395986      -0.10932978      -0.05644474       0.11021166      -0.00681043       0.01039669       0.02745403       0.00810201       0.00874674       0.02438749      -0.00145445       0.06948576      -0.87888882      -0.44640977      -0.10819974      -3.81688255
H        0.09120639      -0.17544657       1.26928091       0.59403789       0.21285178       0.31517348      -0.01654983       0.07568374       0.05311582      -0.18324842       0.00720680       0.03445385      -0.04273905      -0.05337766      -0.00756889      -0.04094158       0.36794942       0.06145645       0.30919498      -3.58536840
49
Properties=species:S:1:pos:R:3:original_dataset_forces:R:3:LES_q:R:1:LES_BEC:R:9:forces:R:3:energies:R:1 original_dataset_energy=-214.375 energy=-214.1787615106581 stress="inf inf inf inf inf inf inf inf inf" pbc="F F F"
O        2.74079180       1.31122804       1.60913861      -0.71238917       0.90444791       0.00239645       0.29825297       0.86585259      -0.22203434       0.30902814      -0.56097978       0.99926769      -0.08501568       0.17840841       0.17123308       0.58568948      -0.66678677       0.88550685       0.03495640      -4.60499299
O       -1.96738684      -1.78946567      -2.93772721      -1.22846913       0.98719174      -1.54006839       0.30186039       1.02054856       0.00799727      -0.15973117      -0.11729259       0.45557074      -0.22010421       0.12214029      -0.17181770       1.52681047      -1.17847634       1.02885009      -1.56902777      -4.55223353
O       -1.47766912       0.65954649       3.01421833       0.25090271      -0.80428576      -0.54956913       0.28214067       0.45690840      -0.32102850       0.12857297      -0.35250166       1.12985337       0.05897882      -0.15564763       0.35109892       0.90016117       0.19012131      -0.85992014      -0.63280331      -4.60911361
O       -1.51347470       3.02839279      -0.23209041      -0.10080127       0.15781827      -0.19159628       0.28670368       0.69172327      -0.21516046       0.05490791      -0.12327130       1.47261571      -0.23019386       0.02184214      -0.23621792       0.38807496      -0.08166079       0.20888182      -0.15123697      -4.65686942
O       -0.91555458      -2.66858029      -1.27237749      -0.41708255      -0.20498034       1.25970757       0.32618472       1.22433225      -0.40821678       0.11298522      -0.26373475       0.75139475      -0.09797918      -0.14106913      -0.18172812       0.96403646      -0.41495327      -0.23858629       1.36243698      -4.50178041
C        2.13750935       2.39357877       1.66535246       1.61249006      -1.29276168       0.87115294      -0.06304736      -1.23882570       0.36482540      -0.78848744       0.68776672      -1.10635353      -0.00617483      -0.74934615      -0.26247114      -0.84661893       1.63230581      -1.29320258       0.83806425      -5.87812407
C       -1.95386600      -2.09346294      -1.74253225       2.02881312      -0.66846627       0.40102839      -0.07195082      -1.40025168       0.42415423      -0.23088970       0.55239128      -0.46156035       0.41872423      -0.03721812       0.44352447      -1.66446156       1.97394811      -0.68496702       0.39625793      -5.60131507
C       -1.14100707      -0.31289354       2.33785534      -0.90063453       1.21362257       0.13053496      -0.07694569      -0.46222415       0.76938603      -0.35220739       0.75840690      -1.46219200      -0.02248291      -0.11419805      -0.08158881      -1.08354909      -0.90293436       1.35216583       0.12987697      -5.61590508
C       -1.08197916       1.91129947       0.00926352       0.49979758       1.56720483       0.21126775      -0.07106394      -1.13469253      -0.15033501       0.04637491       0.07634745      -2.02132286       0.41698711       0.00918342       0.44098951      -0.20033370       0.44595789       1.62350989       0.28962724      -5.60142616
N       -0.44705373      -1.34048760       2.85028934       0.97139621      -1.23648739       1.04728222       0.08504050       0.35877497      -0.43329397       0.31966956      -0.33913956       0.76086509      -0.13802988       0.23327213      -0.28374316       0.82451258       0.99728026      -1.24559445       0.97917617      -4.73945869
N       -1.90768790       0.89292085       0.28365633       0.90501571      -1.64795637       0.09012706       0.07071579       0.69204214       0.44103300      -0.06443496       0.04660610       1.01951684      -0.22943878      -0.00189592      -0.25370175       0.20349100       0.94780003      -1.83011555       0.10843079      -4.50046905
N        1.13310623       2.71096492       0.86807859      -2.37509274       0.22239926      -0.98690468       0.07372969       0.83857426      -0.13290033       0.49658187      -0.10153404       0.44059283       0.12224708       0.52375345      -0.05225351       0.74505740      -2.40452235       0.21375988      -0.99346535      -4.71714719
C        2.50071096       3.45899391       2.67472720      -0.06924981      -0.39425844       0.13235503       0.08798054      -0.06901646       0.04551933       0.07429333       0.09638037       0.11773130       0.18432787       0.08777206       0.14098750       0.00953213      -0.09454712      -0.36272572       0.14054962      -4.46151936
C       -0.17738050      -1.45360315       4.33453703      -0.55591041       0.04742099      -1.27226043       0.07367751      -0.14900267       0.06408148      -0.21424569       0.00918050      -0.17665539       0.04266227      -0.05653358       0.03591455      -0.46425107      -0.53713491       0.01988714      -1.22476724      -4.70304205
C       -3.09372854      -1.75617361      -0.81234330       0.03310551      -0.72849965       0.57256973       0.07574462       0.17722218      -0.01065135      -0.10952818      -0.05457747      -0.10108611       0.01194714      -0.15810370       0.00009682      -0.03187541      -0.03711607      -0.83398568       0.53942306      -4.81472232
C        0.86849964       0.68341076      -2.37616110      -0.19348177      -0.06475527       1.11017334       0.10621302      -0.08951402       0.02225317      -0.06363445      -0.04460715      -0.12365504       0.10808857      -0.05223410      -0.02164368       0.00300184      -0.15895513      -0.13697899       1.07048574      -4.72576107
C        1.78929579      -0.50175667      -2.03658438      -1.31793189       0.58369368      -0.03938173       0.09948885      -0.17046593       0.06752242       0.18472355       0.08737862      -0.04948837      -0.02327855       0.00382286       0.03864192      -0.11827551      -1.35094950       0.57974396      -0.06828110      -4.77736568
C       -2.65616035      -1.42502737       0.61968529       0.84254050      -1.02210283      -0.06934137       0.09792460      -0.27651565      -0.11150102       0.01026361       0.00282849      -0.13958551      -0.01372322      -0.04857947       0.00875485      -0.12851868       0.81319396      -1.04506572      -0.13631730      -4.79677430
C        1.05494034       1.87920642      -1.40350699      -1.33595550      -0.30470064      -0.80902547       0.10133120      -0.03709202      -0.02740590       0.01790920       0.01496141      -0.07634939      -0.06031369      -0.00080078       0.04247798      -0.21240948      -1.31475815      -0.23038093      -0.79533630      -4.65574875
C        1.83742630      -1.44636464      -3.21792960       1.10442305      -0.69027472      -0.37436119       0.01446622      -0.39915566      -0.17974225      -0.03844864      -0.20295864      -0.27166350      -0.06045197      -0.08589966      -0.03445854      -0.20731509       1.09559969      -0.69741672      -0.39708765      -4.85935246
C       -1.51653743      -0.41883680       0.81382680       0.11221289       0.27655244       0.81147784      -0.01129702      -0.26241150       0.02089374      -0.05533465      -0.10819692      -0.49903141       0.15003039       0.04813985       0.11842215      -0.19612428       0.11888288       0.36987113       0.93056877      -5.08091229
C        0.44811559       1.74517226       0.00501576       0.72307462      -0.84210378      -0.27626771      -0.02409921      -0.16085421      -0.26663605      -0.06741344      -0.26877462      -0.20073335      -0.11102816      -0.04118594      -0.09041293      -0.45018045       0.76295439      -0.85132075      -0.36013144      -5.06889764
N        0.57637584      -2.24472666      -3.35544634       2.21102047       0.54217595      -0.30482954      -0.04221091       0.58051921       0.10913732      -0.05928312       0.05932080       0.26839402       0.09884736      -0.11937029       0.14996217       0.49191637       2.31623269       0.56589353      -0.37352619      -3.72789697
H       -0.15322825      -2.12791777       2.27111220      -0.34589481       0.68653893       0.22757183      -0.19477980      -0.18765747       0.03035077      -0.00862016       0.01983231      -0.25258074      -0.02145092       0.02491119      -0.02502495      -0.24250870      -0.37354160       0.69276873       0.23206485      -3.64298450
H       -2.88453436       1.11206281       0.27558294      -0.16627096       0.19519015       0.09646277      -0.19937935      -0.29459678       0.01706973      -0.00393488       0.06695886      -0.17517616      -0.01062136       0.04167162      -0.02187185      -0.22168672      -0.10364856       0.19818949       0.11061762      -3.61107766
H        0.68600070       3.61121154       0.94504011      -0.00695358      -0.12452897       0.07552379      -0.19595377      -0.20275207       0.07387079       0.03298895       0.08464155      -0.22788905       0.03371773       0.02821736       0.02488113      -0.17095404      -0.03029813      -0.13535079       0.06320973      -3.59366736
H        2.26226616       4.44678116       2.26576734       0.61790454      -0.06995263       0.23068498      -0.05129180      -0.01295210      -0.03331246       0.01054527      -0.00787781       0.10418668      -0.02511612      -0.00877883      -0.03482386      -0.02131325       0.63140962      -0.06184055       0.22487846      -4.00342439
H        3.53692102       3.25691938       2.98648691      -0.42988122       0.63645351      -0.23763840      -0.04947543       0.10942114       0.05588723       0.07194332      -0.02145466      -0.02137371      -0.00100339       0.06857742       0.04944848       0.03655439      -0.44366671       0.61104803      -0.23397453      -4.01300627
H        1.85610926       3.33084011       3.55076432       0.09606462      -0.08336016      -0.12447318      -0.04964320       0.01933211       0.00778452      -0.03900921      -0.03858824      -0.07023768      -0.04537229      -0.04116822       0.01396212       0.08203164       0.13295810      -0.06605283      -0.09687230      -3.94814332
H        0.47495162      -2.30467415       4.55813980       0.09704795       0.43299511      -0.43135244      -0.05788444       0.00832294      -0.05506842       0.07331531      -0.04216353       0.04724221      -0.07854842       0.02313212      -0.04300805       0.05234614       0.09450943       0.42101152      -0.41050656      -4.02255146
H       -1.12514913      -1.68528104       4.80853415      -0.10693275       0.26813859       0.24686113      -0.05381303       0.03870096       0.02410521      -0.05208635       0.01120798      -0.02153850      -0.03506267      -0.02448238      -0.00236344       0.06024357      -0.11094207       0.26884155       0.24599779      -3.98568904
H        0.21789205      -0.50705856       4.71240091      -0.05273389      -0.34838340      -0.11634793      -0.04922044      -0.03016594       0.00120579       0.07542940       0.04158378       0.02182146       0.10512035      -0.00448525       0.04920983      -0.01168726      -0.05869740      -0.33192783      -0.10735317      -4.06171063
H       -3.76615429      -2.63328886      -0.76692098       0.37276730       0.29095912       0.00752964      -0.05347465       0.13482938       0.12658377       0.04406944       0.04090160       0.05162242       0.03055322       0.04226678       0.04114760       0.03073569       0.39772683       0.33069177       0.01347977      -3.87665440
H       -3.69603252      -0.97911417      -1.21791792      -0.25983024       0.72304809      -0.52249432      -0.05984928       0.13982110      -0.00842946       0.07969470      -0.07671211       0.04094228      -0.04714479       0.02335570      -0.03624763       0.03990556      -0.28099975       0.73443561      -0.51430324      -3.95506970
H        1.09447253       1.02023125      -3.39020205      -0.08221181       0.01485388       0.08854747      -0.06284440      -0.01965581      -0.01409812       0.04109289       0.02450314       0.03388843      -0.05961107       0.00940122       0.02401926       0.11533301      -0.08283727       0.07308429       0.12234037      -3.94105043
H       -0.16365212       0.30870831      -2.35361624       0.05431562       0.39149764      -0.13709994      -0.05173894       0.06642295       0.06549974       0.00337581       0.06136733       0.00918480      -0.02231754       0.01950721       0.00536258       0.01187426       0.04260622       0.34465548      -0.11560953      -4.08562772
H        2.76011753      -0.08176225      -1.85503948       0.65956032      -0.17861675       0.07077318      -0.06610779       0.07606961       0.02285823       0.05307625      -0.00526075       0.04733239       0.07659670       0.05369204       0.03045755       0.01270979       0.65538060      -0.18533141       0.05753443      -3.89436769
H        1.44797122      -1.01590908      -1.10814774       0.31868005       0.24629122      -0.74952924      -0.05302462       0.00869861      -0.03530507      -0.08209920      -0.05674524       0.01026845      -0.01947475       0.01162601      -0.05987201       0.01637006       0.25816101       0.25870697      -0.76538187      -4.01761773
H       -3.49793625      -1.05803943       1.15049040      -0.91022962       0.44389278       0.55482441      -0.06178098       0.11909811      -0.00917172      -0.04917491       0.02040010       0.00037642       0.04928597       0.01144183       0.08519631       0.10620730      -0.90803215       0.44573909       0.52176152      -3.88540587
H       -2.39141655      -2.36757016       1.12690020       0.12049560       0.46597371      -0.24184093      -0.05177922       0.00070193      -0.02096862       0.05618353      -0.01889265       0.11099302      -0.06167229      -0.02970638      -0.11517289       0.06532524       0.14174324       0.40161497      -0.19102901      -3.94438388
H        0.55966616       2.73902893      -1.85906327       0.30412748       0.15057111       0.03968696      -0.05335169       0.00054241      -0.05442102       0.02368715      -0.02927151       0.10112780      -0.02240113       0.00080918      -0.04210406       0.04203155       0.32686768       0.15496092       0.00668569      -3.91812387
H        2.10515022       2.07886934      -1.28273213       0.36500886       0.12194462       0.01987437      -0.05870331       0.10676589       0.03787738      -0.03132891       0.05670808       0.02021127       0.01948316       0.00575643       0.02307137       0.02751485       0.35757421       0.14001743       0.00202437      -3.95272155
H        2.04320097      -0.92975742      -4.19456100      -0.28004766      -0.40275681       1.06195152      -0.06237175      -0.03414507       0.05458961       0.01967316      -0.00145120       0.01858099       0.02032252      -0.01867138      -0.03615352       0.08839348      -0.27022974      -0.41247826       1.05079608      -3.94216157
H        2.67519665      -2.13789511      -3.01063895      -0.56089932       0.01967797      -0.50561631      -0.06516255       0.02241018      -0.01308269       0.08449953      -0.09577063       0.06031759       0.08775162      -0.00097630       0.02037023       0.00332515      -0.58263023       0.01278093      -0.51469662      -3.85596927
H       -0.59231186      -0.77607179       0.37698504      -0.20875199      -0.06080178      -0.69799602      -0.05056012       0.13747806      -0.02401713      -0.06147510      -0.04350069      -0.00167952      -0.05119233      -0.10795515      -0.09323273       0.02737221      -0.24953067      -0.00527749      -0.69855056      -3.86111249
H        0.69674742       0.76579344       0.36834255       0.32215834      -0.27380762       0.37794688      -0.04969412      -0.06861312      -0.03204162      -0.02731328      -0.00104355       0.05772512      -0.00913109      -0.01214723       0.00327619      -0.01171636       0.33869540      -0.31406220       0.38899127      -3.78048714
H        0.53028750      -2.82596517      -4.16392040       0.26149508      -0.58808678      -0.55264890      -0.17821944      -0.16055856      -0.01105668      -0.02932201       0.02912868      -0.17402612      -0.01185121       0.03827495      -0.07908652      -0.29046218       0.30447155      -0.60930101      -0.60100599      -3.42984953
H       -0.26271993      -1.70863879      -3.38114548      -1.80494404       1.18319964      -0.15295033      -0.10277274      -0.66737891       0.02740640       0.01196922       0.07511687      -0.33023876      -0.22274690       0.11015395      -0.08433874      -0.32834548      -1.83066160       1.24047877      -0.17351270      -3.47334953
H        0.34889776      -2.75484014      -2.51158428      -0.46188354      -0.74422497       1.14592314      -0.11176635      -0.36661523      -0.09201357       0.15114863       0.05238214      -0.18720664       0.00726106       0.26932400       0.03083095      -0.55797056      -0.50787029      -0.74521275       1.26454082      -3.51586532
45
Properties=species:S:1:pos:R:3:original_dataset_forces:R:3:LES_q:R:1:LES_BEC:R:9:forces:R:3:energies:R:1 original_dataset_energy=-204.78163146972656 energy=-204.73442545428998 stress="inf inf inf inf -inf -inf inf -inf inf" pbc="F F F"
O       -2.52380252       0.46578401      -3.98694420       0.49329740      -0.73448259      -0.30544418       0.27680948       0.44088301      -0.18144942       0.12964576      -0.13582303       1.07294218       0.37897090       0.20140957       0.15583166       1.04472446       0.49107140      -0.77510879      -0.25555332      -4.62011541
O        2.70956898      -2.77739716       0.28106493       0.08025318      -0.57271159       0.22211786       0.30840689       0.93808287      -0.08052122       0.20740132      -0.28064839       1.57864852      -0.31789879       0.24629539      -0.15493040       0.64880592       0.06170326      -0.56390945       0.19107613      -4.64587252
O       -1.32759237       2.14514637       0.49834639      -0.24875438       0.16253380      -0.09499303       0.28446087       0.83026633      -0.31331308       0.07070655      -0.51812659       0.99610256       0.25808955      -0.16667836       0.46636086       0.68761708      -0.24327766       0.12886015      -0.09450391      -4.63161115
O        0.09250671      -0.51472467       2.64520741       0.50903517       0.37683511      -0.20285484       0.26747221       0.84045264       0.50322029       0.42363851       0.56858703       0.93238007       0.36542417       0.11006270      -0.02792076       0.97146573       0.45997549       0.36676887      -0.26089765      -4.66525886
O        1.97342992      -1.15089059      -1.03879809       0.95263028       0.19211559       0.87025213       0.30195928       0.78223270      -0.32018411       0.38669860      -0.21867290       1.02016067       0.04131203       0.23595184      -0.17519391       1.07912429       0.91721146       0.18092351       0.81016116      -4.62629059
C       -2.64957333       1.52072001      -3.39481783      -0.53674901      -0.76661521       0.21471009      -0.07871294      -0.31688015       0.28680819      -0.40159808       0.24086800      -1.17293628      -0.37725034      -0.48894014      -0.23040419      -1.83832882      -0.52927295      -0.72494637       0.14902163      -5.90051759
C        2.61770225      -1.56913269      -0.01455575      -1.57309568      -0.01820034      -0.71320814      -0.05543407      -0.60295230       0.12286231      -0.71207880       0.34021927      -1.91634687       0.30241566      -0.74975486       0.36748818      -1.30320405      -1.46860334      -0.05476728      -0.65088366      -5.61668052
C       -0.82186323       1.22749376      -0.14104038      -1.17746592       1.32225335       0.72775751      -0.07234630      -1.42632903       0.71222616      -0.34328005       0.73252085      -0.95955959      -0.40016842      -0.21552404      -0.51388584      -0.81241033      -1.22615367       1.34337173       0.69755704      -5.71194071
C        0.87660515       0.43520397       2.59272671      -1.49234450      -1.45623255      -0.22058022      -0.09063213      -0.77509126      -0.75688466      -0.48516457      -0.74957645      -0.92362505      -0.28612590      -0.41032740      -0.20003844      -1.40015433      -1.54090277      -1.55832260      -0.23383298      -5.63460067
C       -0.97154093      -2.37888217       0.20041782      -0.60685116       1.31087065      -0.38803843       0.02449596      -0.11969701       0.11368732      -0.01928734       0.01193981       0.03251008      -0.06327335       0.07946468      -0.31481437      -0.25956711      -0.67552545       1.26596255      -0.44752571      -5.44915451
C       -1.62612164      -1.85936427      -0.88757044      -0.53128964       1.19187701       1.36155283      -0.03733279      -0.15262859       0.32735859       0.10762202       0.24207686      -0.04215024      -0.06006983      -0.02502135       0.07059673      -0.25711264      -0.51032561       1.14393859       1.41516219      -5.37907361
C        0.03639212      -3.06215024      -1.62393641       1.73525262       0.47661835      -0.03463305      -0.04830449      -0.37260748       0.15064306      -0.18411176       0.09588898      -0.09488990       0.19640886      -0.21808417      -0.11040767      -0.49999835       1.71006533       0.43081692      -0.09002489      -5.72569360
N        0.07533222      -3.10886836      -0.29046631       0.31368908      -0.40612480      -0.56672722      -0.03854495       0.42045659       0.08156936       0.05452568      -0.01394203      -0.04941508      -0.14405597       0.11075032       0.21066228       0.48902902       0.22073871      -0.30377177      -0.56590818      -4.97825487
N        1.45582414       0.89859778       3.70465112       0.39801550       0.19096100       0.66326725       0.08784190       0.38919358       0.26722988       0.23835864       0.24266584       0.42569384       0.03985747       0.37459778       0.19792440       1.07366064       0.45702567       0.26962840       0.74555753      -4.79353493
N       -2.34615779       1.63070750      -2.08058572      -0.25074044       1.76338494       1.48958230       0.10583534       0.41350486      -0.13198570       0.44325253      -0.17663870       0.60663875      -0.15924745       0.42317121       0.00610891       1.29843593      -0.22951242       1.66547847       1.48708842      -4.55964877
N        0.37494218       0.73458153       0.15200549       0.62421203      -0.99581873       0.09413583       0.09156484       1.15831263      -0.41942987       0.27529350      -0.27644979       0.44249411       0.15998540       0.32504895       0.09583723       0.50716159       0.67597972      -1.03103678       0.09437427      -4.72864173
N       -1.01925218      -2.34570551      -2.04020953       0.72371763      -0.25139126       1.85525751      -0.05953053       0.25170092      -0.25836060       0.11544897      -0.25700347       0.04895134      -0.17014635       0.08062754       0.04778930       0.40478501       0.70808464      -0.30299731       1.84669290      -4.93938951
C       -3.22070122       2.72387648      -4.07078934      -0.41079253       1.19240916       1.10834420       0.08260097      -0.10804647      -0.10582163       0.07035841      -0.04447382       0.06337943      -0.01070653       0.04428287      -0.06780019      -0.02158210      -0.43544898       1.20725381       1.11183316      -4.53133607
C        1.44998169       0.14800543       4.97687578      -0.21204095       0.20825472      -0.87793952       0.07742219      -0.17003438      -0.01931783      -0.08203870      -0.06748425      -0.23969824      -0.03727850       0.02022694       0.12591306      -0.35716960      -0.22257505       0.19567493      -0.88427985      -4.77432660
C        3.16732144      -0.59578723       1.01356530       0.64307535       1.24736941       0.12352879       0.07842129       0.04429048       0.07227295       0.17275357       0.10547299      -0.01923692       0.10860715       0.08300788       0.13205803       0.02254710       0.59917840       1.27019718       0.09366685      -4.83465070
C       -2.49094367      -0.61000144      -0.85602224       0.36936426       0.06960575      -0.11084221       0.05837380      -0.04939269      -0.03628270       0.08952993      -0.07183779      -0.03919648      -0.03365714       0.13375753       0.00230202      -0.06141962       0.36219780      -0.00990722      -0.10729647      -4.64031916
C        2.71008539       0.86632878       0.92650098       0.55748135       0.08538906      -1.48708797       0.09406136      -0.16763508       0.10113130      -0.03261742       0.06064518      -0.15081121       0.04480377      -0.11326974       0.00286105      -0.09318661       0.56632715       0.06689734      -1.45704082      -4.75891395
C       -1.61693335       0.62888211      -1.32938230       0.85868549      -0.67174673      -0.39172590      -0.01986573      -0.40153859       0.11525793      -0.18162780       0.23504884      -0.43146752       0.41323675      -0.09151835       0.22788753      -0.28369799       0.78106132      -0.60298859      -0.34700611      -4.97350793
C        1.24424982       1.10925889       1.27461481      -0.65657115       0.57147539      -0.51460129      -0.01573600      -0.55537231      -0.04493297      -0.24654984       0.02475885      -0.17239774      -0.12316645      -0.10315384      -0.06956266      -0.29427508      -0.67724409       0.59462763      -0.51702083      -5.15441226
H       -1.08263206      -1.99671006       1.22650170       0.27776206      -0.73467445      -0.61675876      -0.06366919      -0.07837714      -0.06856090      -0.02702599      -0.05651101      -0.08723654      -0.03771119      -0.01588296      -0.00503915      -0.04411087       0.34162201      -0.64974568      -0.56721688      -4.19968163
H        0.96601534      -3.17969084      -2.20060015      -0.94171661      -0.53466386       0.19378312      -0.06697024      -0.04471493      -0.00368604       0.00106041      -0.03237767      -0.09589081      -0.03147996      -0.04910683       0.04211925      -0.09470820      -0.93558245      -0.52611439       0.18770896      -4.08652250
H        1.00636625      -3.25135493       0.19486898      -0.32007921      -0.07465006      -0.50472528      -0.13802142      -0.80565586      -0.08108602      -0.12734918      -0.10315902      -0.19127592       0.00235233      -0.07268442       0.01560784      -0.16750798      -0.25095560      -0.08423763      -0.48924160      -3.85309710
H        2.08585048       1.66513181       3.61345935       0.25610626       0.23513323       0.04016835      -0.19503295      -0.22933025      -0.04170074      -0.02075943      -0.03600472      -0.22602929      -0.01569144      -0.01901172      -0.02859547      -0.23085009       0.25599621       0.20226247       0.00906735      -3.58998259
H       -2.50471091       2.53678370      -1.61384284       0.20867407      -0.95643872      -0.28679016      -0.19676539      -0.18093693      -0.01445304       0.02831869      -0.02066369      -0.24599301      -0.08014952      -0.00928281      -0.05000880      -0.22123413       0.25573456      -0.94289652      -0.27284879      -3.60089342
H        0.74147296      -0.03193510      -0.40196759       0.32585880      -0.11146723      -0.25041088      -0.12847084      -0.29457434       0.22555369       0.18740163       0.23868351      -0.37627861      -0.11953387       0.22191982      -0.13505834      -0.21002139       0.31573967      -0.12515549      -0.21185361      -3.85417945
H       -1.06756902      -1.92039084      -2.94256115      -0.31732380       0.06917179      -0.45799437      -0.19185090      -0.24048570      -0.11264455      -0.11734758       0.00286447      -0.21507020       0.05932301      -0.04828097      -0.04848266      -0.36821432      -0.32152063       0.10537332      -0.46833340      -3.73348694
H       -4.08902550       3.14124799      -3.50705409       0.92999202      -0.08787268      -0.10232943      -0.04693317       0.04484521      -0.03120358      -0.05065999      -0.01340916      -0.01646261       0.05821207      -0.04930757       0.03296131      -0.00901588       0.92484606      -0.07826339      -0.10122684      -3.96707342
H       -2.41638494       3.46001363      -4.17324686      -0.37757903       0.12773269       0.07180242      -0.05236750       0.02011604       0.05764487      -0.01702024       0.07348476       0.00963678       0.01663763       0.00383699      -0.02572319       0.00332772      -0.38647867       0.12861627       0.07399533      -3.96127696
H       -3.61879134       2.50582433      -5.02861643       0.01434661      -0.55319142      -0.85831630      -0.04900873       0.01267500      -0.00582672       0.04526825      -0.03459773       0.02276823      -0.04118071       0.06704638      -0.02776455       0.11449818       0.03123290      -0.56023538      -0.85488056      -3.99840331
H        0.45226884       0.13095146       5.40994596      -0.04579628      -0.10629050      -0.16019574      -0.05293329       0.03274631       0.00951502      -0.12410000       0.02358332      -0.00045332       0.02307530      -0.02596498      -0.03372780       0.02184708      -0.06459999      -0.10774712      -0.17417242      -4.01018521
H        2.08735466       0.69049150       5.67826271       0.14755687      -0.44217804      -0.20449249      -0.05929096       0.01249603       0.01176723       0.07719231       0.04047518       0.00191880       0.06621013       0.02867543      -0.01125064       0.06183728       0.14755149      -0.44821352      -0.21011910      -3.99949198
H        1.76235938      -0.88364679       4.73861647       0.01138777       0.49628666       0.57013738      -0.04920131      -0.01082365      -0.00700284       0.03758538      -0.01655283       0.06985513      -0.01642450      -0.05022680       0.01033591      -0.06968007       0.01073986       0.52154472       0.56115171      -4.01809838
H        2.93796206      -0.89148068       2.01293087      -0.42328781      -0.91353661       0.55012155      -0.05276084       0.00523567       0.00023535       0.02472334      -0.02085792       0.04900535      -0.05578670       0.09508045      -0.07403084       0.15170288      -0.39628559      -0.86532081       0.56468648      -3.86704320
H        4.25915623      -0.65816343       1.01734948      -0.05870974       0.11099337      -0.36729649      -0.05264994       0.16329241      -0.05061962       0.01193297      -0.01647650       0.05036155       0.00543071       0.07897980      -0.00545170       0.01039751      -0.02765928       0.11111401      -0.34661829      -3.89076695
H       -3.29325366      -0.76202863      -1.57351232      -0.23137164       0.40859592       0.14654984      -0.05793409       0.15174396       0.03069985       0.06787686      -0.02498015      -0.01783482      -0.01311067       0.10985397       0.02656223       0.01301495      -0.19271563       0.46407977       0.12975503      -4.03346939
H       -2.88797712      -0.38248581       0.17640144       0.38587257      -0.54850119      -1.22990727      -0.05909852      -0.00824598      -0.04726588      -0.08941214      -0.00148143       0.03878993       0.02252144      -0.09227557       0.01406025       0.08738563       0.39666958      -0.52524803      -1.24868738      -4.09677458
H        3.30392385       1.52922106       1.55156755       0.17752485      -0.28004554       0.27498129      -0.05838640       0.06109014       0.02355774       0.02713340      -0.04793601       0.11047059       0.02733487       0.06245646       0.07204435       0.04786645       0.20662571      -0.24373012       0.29405805      -3.93324360
H        2.91130471       1.23067832      -0.10250515      -0.39624411      -0.13242298       0.53376085      -0.04603384       0.02336664      -0.02810545      -0.02280728      -0.02758734       0.01823848      -0.06045823      -0.04749388      -0.06383864       0.10060357      -0.41036744      -0.13384234       0.52798014      -3.89894210
H       -0.83663213       0.33473974      -2.02528715      -0.06443095      -0.77711046      -0.10118370      -0.04345715       0.05861667      -0.04118886      -0.00942067       0.00732336       0.01838284       0.02539482      -0.08079451       0.00378394      -0.00410292      -0.06475969      -0.76829861      -0.07825128      -3.75461397
H        1.11347890       2.17112494       1.43842983      -0.11462203       0.31578955      -0.06320335      -0.05201015       0.01574934      -0.01141305       0.00052967      -0.02383472       0.07492694       0.03896776       0.00608075       0.04683391       0.06171441      -0.08761144       0.32341453      -0.05536982      -3.76394910
48
Properties=species:S:1:pos:R:3:original_dataset_forces:R:3:LES_q:R:1:LES_BEC:R:9:forces:R:3:energies:R:1 original_dataset_energy=-208.4431915283203 energy=-208.46631231820902 stress="inf inf -inf inf -inf -inf -inf -inf -inf" pbc="F F F"
O        2.69353962       2.04182339      -0.03360119       1.79321408      -0.01456061      -0.20472695       0.27190679       0.84339324      -0.36707330      -0.37751865       0.31166469       1.02551871       0.14327378      -0.19088866       0.30046706       0.49812431       1.69180568       0.06654331      -0.14417019      -4.67785131
O        0.85516757      -1.12058759       2.10804701       0.71484113      -0.72611088      -1.58868992       0.36699080       0.73687536      -0.17783674      -0.26567009      -0.06263677       1.31944964       0.11289028      -0.22697107       0.57729399       0.81555398       0.68695105      -0.76300757      -1.57921786      -4.48996434
O        1.03602314      -0.62125844      -2.48477674       0.89969474      -0.45633191      -3.07030106       0.27393451       0.77179155       0.00781237      -0.02006634       0.00089360       0.30722567       0.03904247      -0.31292187       0.10918410       1.34340441       0.86672226      -0.49509131      -3.17626580      -4.53437306
O       -3.41900754      -0.77422249       0.22409305      -1.27286434       1.72841501       0.20209640       0.26016480       0.99928822      -0.31121611      -0.07083026      -0.17858492       1.02804986       0.01270681      -0.34313686       0.06953004       0.69859936      -1.20298419       1.77925305       0.12829416      -4.62005008
O        0.48388314      -3.13878703       1.27124441      -0.68923503      -1.18092203      -0.75356507       0.32137772       0.92481115       0.43196494       0.09000315       0.26259207       1.41459504       0.10379275      -0.03146283      -0.00606517       0.58692781      -0.71556864      -1.11405447      -0.69911480      -4.60780404
C        3.62567425       1.37713790      -0.55352575      -3.34337997       1.96377611      -0.07685929      -0.10191823      -1.01696951       0.08032994       0.34215608      -0.40195240      -1.75067144      -0.41871962       0.12246309      -0.56696599      -0.35065136      -3.29581510       1.91592804      -0.01889582      -5.76093386
C        1.10107720      -2.08189392       1.25588810      -1.45974338       1.03335977       3.17854953      -0.04648463      -0.71819655      -0.46170758       0.42934110      -0.37832493      -1.91058461      -0.25393899       0.48658171      -0.57972501      -0.70922731      -1.21967045       1.11690024       3.04618813      -5.60166002
C        0.92354828      -0.57169110      -1.30151534      -0.33164623       0.68532670      -0.88515133      -0.08987680      -1.41459906       0.09336846       0.36470356       0.08724466      -0.07160759      -0.06218373       0.49665770      -0.15976385      -1.55570809      -0.53807925       0.80910595      -0.65664094      -5.64011809
C       -2.50916290      -1.42378426      -0.28197834      -2.11340594       4.83116722      -0.07248800      -0.07816921      -1.11791204       0.31913007       0.39538464       0.57204031      -1.21391048       0.30206477       0.51553782       0.29415640      -0.67774827      -2.11516147       4.97843689      -0.30883475      -5.41426814
C       -0.79765689       1.48643374       1.64678514       3.34397531      -0.47198880       0.90288270      -0.02660071      -1.19329125      -0.17223511      -0.07872184      -0.32896077      -0.98603177       0.71025870      -0.33939334       0.56397593      -0.80050426       3.61493165      -0.32154626       0.92116218      -5.70773968
N       -1.33238101       0.42875922       2.12366366      -2.97260833      -1.65806103      -0.07552842       0.06415249       0.54681477       0.18145078       0.09987998       0.22313796       0.72893737      -0.30253502      -0.05308152      -0.33071636       0.42618682      -3.03175274      -2.06552436      -0.42031312      -3.98853901
N       -2.29800677      -2.57701206       0.18066916       5.22212648      -6.21813440       1.83077979       0.08158974       0.49647446      -0.02165672      -0.11735677      -0.27746788       0.86287889      -0.25733258      -0.12546794      -0.44478868       0.49195901       5.10285016      -6.50302946       2.00290246      -4.70804610
N       -1.27744234       2.23021293       0.72774422      -3.06032634       2.14126062      -3.76579905       0.04479714       0.38771112      -0.03063012       0.32837635      -0.07936053       0.49131197      -0.24249397       0.38441155      -0.33092283       0.62550480      -3.25119734       2.00957482      -3.89209208      -4.23255176
N        3.36730433       0.12419629      -0.87753963      -1.51039314      -3.23485422      -0.29921016       0.09318074       0.89468115       0.27882807      -0.12962001       0.42628344       1.11215179       0.16647000      -0.09090646       0.16834360       0.24788485      -1.60820676      -3.28791249      -0.26649806      -4.59532353
N       -0.32313588      -0.52441663      -0.78758574      -0.89719427       0.61143690       2.13228083       0.11260589       1.40161082       0.09279642      -0.38141466       0.10297141       0.29683979       0.05288237      -0.06195266       0.02389059       0.59079061      -0.79183541       0.63332297       1.82101116      -4.60535474
N        0.43618834       1.84015656       2.00477242       0.50529319       1.58726287      -0.03335649       0.10535157       0.81262971       0.13580090      -0.05644309       0.17473493       0.33046051      -0.27479130       0.10791899      -0.10693815       0.34600844       0.45341623       1.57763776      -0.00604498      -3.74000427
C        4.97036409       1.87083077      -0.86179101       0.53098208       1.51865900      -1.05503726       0.06604100       0.22529007       0.07431099      -0.05921400       0.00386175      -0.06835177      -0.00259031       0.05457048       0.02730174      -0.17381702       0.60441785       1.43321868      -1.00285798      -4.68851500
C       -2.64274096      -3.16119766       1.52680838      -4.06274891       1.35908687      -2.09831381       0.07912826      -0.19612460      -0.00922167       0.04542295       0.05323732      -0.16165043       0.06228036       0.08997260       0.21033955      -0.41513649      -3.96103919       1.35006954      -2.24058980      -4.66150240
C       -2.37238264       2.20964479      -0.33669990      -0.63882083      -0.13257372       1.91775012       0.03509144      -0.27950482      -0.04086331      -0.12128263      -0.06478132      -0.18914947      -0.06800447      -0.17382697       0.06188243      -0.33926502      -0.56055107      -0.05288826       2.09842164      -4.83204910
C       -1.96688306       1.85964656      -1.75461864      -0.57118005       0.36415803      -1.45678270       0.09545385      -0.17881346       0.05703088       0.02803574      -0.13362679      -0.08340551      -0.19611840       0.05222523      -0.05571565      -0.14791717      -0.58119144       0.31585999      -1.42040900      -4.61631056
C        2.23266435      -1.90950882       0.32764372       2.69225192       2.46099162      -0.41143382       0.04735663      -0.07589967       0.19832590      -0.19498493       0.00989938      -0.00770791      -0.03048689      -0.02232094      -0.11302469       0.01829749       2.63781324       2.30489821      -0.24949329      -4.55151688
C       -2.28957510       0.39210021      -2.26882434       1.70759451       1.05387223       2.25566268       0.08522823      -0.15988276       0.05338351      -0.04227661      -0.05300176      -0.27739490      -0.07098758      -0.00221416       0.04258056      -0.03331814       1.78727492       1.06709779       2.14556997      -4.63887338
C        2.10703444      -0.49733323      -0.37611508       0.68369699      -2.17547202      -0.78957474      -0.01784792      -0.58440793      -0.08877909       0.19387134      -0.25669485      -0.30335666       0.11140244       0.04288955       0.15069848      -0.06359583       0.77123822      -2.05833167      -0.83282911      -4.99006787
C       -1.65029657      -0.76157284      -1.38699389       0.47624069       0.62001467       0.76413029      -0.01338022      -0.35801800       0.00916589      -0.13967002      -0.05373088      -0.13929064       0.03590113      -0.19701905       0.06582821      -0.11768932       0.46239761       0.70262489       0.82982106      -4.97279499
H       -2.07905149       0.09396487       1.50559938      -0.31872150      -0.27913088       1.02448690      -0.12662493      -0.32099944      -0.14038047      -0.20631535      -0.00101693      -0.22831404      -0.19226642      -0.04648380      -0.11719316      -0.34013369      -0.39260620      -0.41866658       1.04450925      -3.50413561
H       -0.83914495      -0.22754082       2.70773482       0.61778003      -0.30698997      -0.43720686      -0.14030099      -0.33422422       0.16527953      -0.00200632       0.11466308      -0.24086116       0.11540112       0.02632977       0.01840799      -0.23838362       0.68499264      -0.19686081      -0.28547327      -3.67747732
H       -1.29920566      -2.86241055       0.06679872      -0.87834561      -0.09842540      -0.48306572      -0.16828617      -0.46894948       0.01123528      -0.11155131      -0.05452665      -0.39215099       0.01052476      -0.15795815      -0.06677108      -0.17140648      -0.97684562       0.01690993      -0.42833010      -3.45514345
H       -0.82561094       3.10589409       0.72605109       0.51805860       0.79445964      -0.36988586      -0.18502313      -0.19131432      -0.04595521       0.02890503       0.00292049      -0.32669165      -0.02910927       0.02338290       0.01255417      -0.15454039       0.55211168       0.90657875      -0.37679932      -3.50064144
H        3.99615264      -0.49159610      -1.38761091      -0.14101259       0.63278437       0.31508839      -0.19733129      -0.18764061       0.08083084      -0.01083207       0.03079090      -0.22326749      -0.02772214      -0.01774313      -0.03968860      -0.19852610      -0.11345967       0.55081081       0.27232576      -3.64932495
H       -0.33554173      -0.36580178       0.19703242      -0.00787442      -0.10896414       0.53265238      -0.16688739      -0.17199642       0.02740022       0.00511846       0.03153314      -0.18745715       0.00596140      -0.00531876       0.01475733      -0.27200616      -0.12526886       0.09378230       1.00640934      -3.57109764
H        0.91455287       1.37438941       2.72476268       0.52096593      -0.84111804       0.58456135      -0.15119828      -0.20645518       0.05428316      -0.00721314       0.04440436      -0.29554844       0.07481135      -0.03904424       0.10423357      -0.14146668       0.55831551      -0.76709147       0.52019839      -3.59659470
H        0.99482101       2.38931751       1.34888315      -0.13277285      -0.53812593       0.45258540      -0.14230904      -0.33175972      -0.10734523       0.12811635      -0.02398004      -0.20614846       0.04085833       0.20353501       0.06779429      -0.29039983      -0.04284021      -0.48679794       0.45686743      -3.68697400
H        5.19912434       2.86790442      -0.46806359      -0.83351547       0.30281729      -1.01767254      -0.04297652       0.01631234       0.04658592       0.01230893       0.10208939       0.13703473      -0.01066759       0.08532971       0.07006671      -0.00520002      -0.86654129       0.31961976      -1.00644413      -3.87660536
H        5.45321274       1.39365745      -0.09287414       2.26520419      -2.03025484       1.27155530      -0.04848153      -0.08441768      -0.05095725       0.03242654       0.07091817       0.01916428      -0.01350657      -0.09720179      -0.07890477       0.04040862       2.18015919      -2.01562199       1.15366812      -3.49450642
H        5.37587690       1.65915227      -1.89289486      -0.48838127       0.16738595       1.39120722      -0.05171931       0.04245147       0.00605834      -0.06716328      -0.08022755      -0.04386164       0.04045507      -0.11308285      -0.00271716       0.09008687      -0.48752888       0.20690035       1.39666170      -4.09394750
H       -2.18844604      -4.06720066       1.74139440       1.57806575      -1.28057516      -0.20875283      -0.05628924      -0.04407923      -0.03140689       0.01863553      -0.03541260       0.07577546      -0.04213571      -0.01325629      -0.08902171       0.03560882       1.49262203      -1.29135034      -0.14330922      -4.02244914
H       -2.50097275      -2.45692992       2.29378653       0.36261621       0.87454683       0.90226549      -0.05058730      -0.07778068      -0.00584979       0.01924219      -0.04757926      -0.04838655       0.10272774       0.04445618       0.05784035       0.02590100       0.40115447       0.85329916       0.87748393      -4.04213339
H       -3.74368262      -3.42107511       1.50507343       1.05629170       0.55684167       0.07815335      -0.04518033       0.11329448       0.07055340      -0.06281783      -0.01247601      -0.03819212      -0.01417506       0.01994341       0.01809337       0.02746842       1.09901480       0.52654452       0.08845040      -3.87743914
H       -3.22735715       1.55546069      -0.02863991       0.95941067       0.35860088      -0.03743431      -0.04061651       0.11857286      -0.03279425      -0.03465558       0.11443875      -0.15367473       0.00538981      -0.00035875       0.00519185       0.02335138       1.01133505       0.32640194      -0.07649815      -3.97871453
H       -2.79130745       3.24867797      -0.29408818       0.58963019      -0.92090291      -0.06958941      -0.06185090       0.03687400      -0.05849712       0.00967513      -0.08037285       0.09260185       0.01235284      -0.03085752       0.06445921       0.01524374       0.58143294      -0.90346179      -0.09956010      -3.86177547
H       -0.96337843       2.11253190      -2.05494666       0.46340799       0.32952073       0.46344137      -0.06642243       0.10284077       0.04427982      -0.02026617       0.10666781      -0.02207116       0.07887168       0.00564761      -0.02792063       0.04031440       0.52733577       0.30288527       0.44261021      -4.05836237
H       -2.63800979       2.60364127      -2.30387712       0.89612138      -1.31086016       0.02333963      -0.05471153       0.01154952      -0.04504321       0.00109484      -0.04771416       0.10390200      -0.03360120       0.05998535      -0.08284823       0.08742193       0.87395030      -1.31981891       0.04974976      -3.73761888
H        2.38773823      -2.69727683      -0.39238858      -0.07226762      -0.34331197       0.10237585      -0.06132890       0.02961337      -0.06817830      -0.04406478      -0.06341115       0.13612586       0.06567243      -0.07188048       0.08315123       0.06033940      -0.01136459      -0.35259428       0.10214906      -4.09188882
H        3.12540913      -1.74834430       1.00634193      -0.73710114      -0.64449286      -0.86372024      -0.05056476       0.16481418      -0.07939999       0.06942577      -0.02885655       0.01641838      -0.01320519       0.08006673      -0.03113297       0.03354868      -0.73658845      -0.66618444      -0.87192554      -3.81733518
H       -3.33173847       0.49775875      -2.12567401      -1.30531645      -1.37344217      -0.54888266      -0.06101769       0.15328041      -0.03198865       0.05570571       0.02828939       0.02937576       0.05559441      -0.01261060       0.00217203      -0.03373541      -1.32146889      -1.40201820      -0.59914839      -3.83843435
H       -1.90488124       0.24855512      -3.28410888      -0.56219745       0.22233325       0.26995167      -0.06330576      -0.01499061      -0.00690860      -0.00916060      -0.00358991       0.04128458       0.01799323      -0.00224551       0.03145236       0.12749633      -0.63703560       0.26712814       0.33565619      -4.06739268
H        1.77042365       0.06915963       0.38660040      -0.51508546       2.08194137       2.51705742      -0.00240542      -0.04150595      -0.06667941      -0.02857714      -0.14140947      -0.09517682       0.02394498      -0.11292470       0.05074652      -0.00791227      -0.58883035       2.03271269       2.45355143      -3.49581834
H       -1.50277984      -1.57956588      -1.97668266       0.52484691      -1.93467081      -2.43891430      -0.05943915      -0.06124184      -0.06760150      -0.03813589       0.01441994       0.09581343       0.05304697      -0.00937450      -0.03556899      -0.05814256       0.53118841      -1.98219314      -2.39190591      -3.60123924
49
Properties=species:S:1:pos:R:3:original_dataset_forces:R:3:LES_q:R:1:LES_BEC:R:9:forces:R:3:energies:R:1 original_dataset_energy=-214.5797882080078 energy=-214.62281633992785 stress="inf inf -inf inf inf -inf -inf -inf -inf" pbc="F F F"
O        2.27052331       0.72326708      -2.17961884       0.32027015       0.10960457      -0.49731335       0.17767306       0.95933637       0.53749520      -0.02383360       0.16838998       1.03184332       0.55739002      -0.19661259       0.31681924       0.63942318       0.26419319      -0.07196865      -0.58048203      -4.87513902
O       -1.87673759      -0.11790543      -0.64334440      -0.88867164      -0.12467944      -0.00796818       0.19556946       0.56809891      -0.19379847      -0.14213275       0.04045596       1.16229855      -0.48165596      -0.15609360      -0.18908246       1.44729377      -0.72672933      -0.28320349       0.21251229      -4.89931395
O        1.57254577       1.55305052       1.94001043      -0.32738760       0.05207953      -0.74670738       0.28848669       0.90817705       0.46076505       0.38115338       0.27474426       0.63689346      -0.05191064       0.42962680       0.13298077       0.94810119      -0.36797853      -0.02662648      -0.71326360      -4.59652237
O       -1.65512776      -1.93799496       3.82969069      -0.06337474      -0.48635954       0.84178483       0.27493688       0.78936817       0.15720878      -0.24550349       0.01766434       0.57310737      -0.51100649       0.10292678      -0.46657444       1.27778986      -0.05488198      -0.49958837       0.87121330      -4.66431279
O       -1.80010366       1.06014001      -2.47241259      -0.69478065       0.54593861      -1.44138956       0.33884481       0.57089713      -0.06068655      -0.18859430      -0.19964307       0.81381174      -0.04621092       0.12456722      -0.25380788       1.55555691      -0.67998974       0.58393871      -1.49638147      -4.49303574
C        2.66164017       1.77075970      -1.65842211      -0.00858758      -0.96018243       0.66775370      -0.08472391      -1.23833489      -0.28128569       0.52418320       0.19558799      -1.08473666      -0.93751574       0.62284516      -0.62951954      -0.99863870      -0.05575350      -0.86246319       0.75627995      -5.84455917
C       -2.03991294       0.99609280      -1.27526808       2.25668287      -0.95047373       0.40541968      -0.08660565      -0.25066731       0.08355755       0.14642474       0.41017267      -1.66044840       0.31404789       0.08158755       0.15456963      -1.92563808       2.10046202      -0.86761394       0.43488917      -5.31736839
C        0.69139332       1.21829617       1.14294314       1.99379575       0.68072420       1.19975221      -0.07126857      -1.07895005      -0.93184184      -0.41994598      -0.74772518      -0.96617021       0.21608050      -0.44109373      -0.02212260      -0.99636445       1.98690397       0.77051436       1.26265209      -5.62419977
C       -1.52377582      -1.37353206       2.76811314       0.59533024       0.46546724      -0.06838887      -0.06893758      -1.25678948      -0.19825860      -0.09524700      -0.17625180      -0.48560860       0.79071617      -0.20263497       0.78013893      -1.67269261       0.59916545       0.43849106      -0.07171330      -5.63743851
N       -2.54345965      -1.12843859       1.94087994      -0.95133519       0.43898401      -0.51532370       0.12522498       1.08920267       0.04144159       0.18943421       0.10168448       0.30917803      -0.28562265       0.02295497      -0.30794996       0.84837509      -0.98257117       0.40403688      -0.48724311      -4.73556907
N        1.90346289       2.43150234      -0.78061420      -1.68124080      -0.13919520       1.17056227       0.09867269       0.94134255      -0.10156254      -0.48078073      -0.06086299       0.62904036       0.27810136      -0.39675558       0.29374545       0.64262411      -1.62331260      -0.18085523       1.05564427      -4.59419358
N       -0.14505094       0.20724729       1.38156664      -1.37052453      -0.34644327      -0.77872247       0.09039681       0.85434121       0.41751974       0.12728955       0.49341069       0.98197643      -0.26595751       0.00472291      -0.38912620       0.74901294      -1.51653794      -0.48305786      -0.97212817      -4.75978471
C        4.05180883       2.32074261      -1.83923733      -0.07026177      -0.04204352      -0.62874001       0.08446237       0.12540886       0.11532891      -0.05233773       0.08178151      -0.05670586       0.02938255      -0.07795195      -0.00867663      -0.09082841      -0.06516796       0.00108673      -0.61411048      -4.54590617
C       -3.96830750      -1.17995071       2.35539484       1.57526946      -0.75176686       0.93412244       0.07792491      -0.49494021      -0.02760164       0.08449636       0.01433581      -0.14144016      -0.00705522       0.01225816      -0.01328390      -0.13275049       1.53048777      -0.73592163       0.95529877      -4.78285052
C       -1.97558713       2.23888969      -0.45388633      -0.74663180       1.18037188       1.22652209       0.06997828      -0.15940562       0.01569518       0.02724423      -0.22815719       0.22263323       0.05247269      -0.16873892       0.26330533      -0.02284456      -0.70208534       1.14157929       1.19408417      -4.70306036
C        0.47250766      -2.64108992       0.59690917      -0.01808481       0.32892376       0.39188206       0.10637760      -0.16193237       0.02611839       0.00033041      -0.05288162      -0.06871110       0.00081991      -0.01348266       0.09084756      -0.16914431       0.03261276       0.30279220       0.47970919      -4.79311137
C        1.22515988      -2.00241661      -0.56413156      -0.72108352       0.29407927       0.20802961       0.10404182      -0.10756064      -0.01023277      -0.00335432      -0.03108773      -0.14945999      -0.07305733       0.03990152      -0.08787513      -0.05244757      -0.72406748       0.18430395       0.07467498      -4.71516407
C       -0.55000240       2.85995340      -0.48444188      -0.26111025       0.13690512      -0.78122634       0.09110149      -0.28888266       0.23702288       0.01326551      -0.02306942      -0.05710816       0.00752368       0.02205542      -0.04533419      -0.08685587      -0.35962088       0.20124295      -0.73286596      -4.74677650
C        0.85157913      -2.02456665       1.97337520      -0.26959080       1.15475225      -1.54619610       0.09039809      -0.10108581      -0.01420673       0.07369710       0.01815490      -0.15575779      -0.15495190      -0.02364207      -0.14312919      -0.11331116      -0.30908223       1.15445768      -1.49574471      -4.67002998
C        0.54045671      -2.29868793      -1.92111421       0.56253266       0.05423235       1.16077161       0.01928725      -0.26450911       0.10021430      -0.08975718       0.06729889      -0.36805697       0.23446522      -0.08687517       0.06693386      -0.31867345       0.59142956       0.24668773       1.15143443      -4.81067214
C        0.59587497       1.88221228      -0.27678701       0.58883530      -0.28638691      -0.05278366      -0.01385198      -0.70303595      -0.09444740       0.12747063      -0.07705200      -0.44599023       0.01831350       0.16427872       0.18379603      -0.15335034       0.62901342      -0.26899546      -0.00925555      -5.02005921
C       -0.10496289      -0.84286726       2.40669537       0.62063193      -0.22210521      -0.60834628      -0.00455990      -0.20634716       0.08571295      -0.11505103       0.08605266      -0.45146017       0.25799322      -0.00032410       0.24037177      -0.51607468       0.63667800      -0.09965646      -0.55130643      -4.99964953
N        0.05302584      -1.00499177      -2.48672771       0.36747822      -0.94255519       0.16556214      -0.05027044       0.36294949      -0.02490392       0.04760498      -0.02203117       0.42547142       0.00269683       0.03297868       0.03723621       0.35434276       0.42559703      -1.03370866       0.21332161      -3.77145196
H       -2.36245537      -0.70933330       1.03684139      -0.20115046      -0.04656192       0.02685801      -0.11390895      -0.21339903      -0.07869992       0.15313245      -0.16903131      -0.20260238       0.18882080       0.29436211       0.23444881      -0.64871715      -0.22695117      -0.00957147      -0.15769957      -3.80197265
H        2.31278777       3.21227074      -0.30650401      -0.03937556       0.08364503       0.26210928      -0.19566260      -0.06927909       0.04627149      -0.07270358      -0.04023019      -0.23495106      -0.00526430      -0.10526003      -0.04904713      -0.18180228      -0.08706739       0.08409456       0.27567615      -3.61401883
H       -0.91336346       0.14143720       0.70170248       0.55592775      -0.26031095       0.02341558      -0.09638395      -0.30660534      -0.04065260      -0.27398381      -0.11344534      -0.07992512      -0.13886674      -0.31341417      -0.08708172      -0.35368822       0.64049716      -0.18631604       0.02058945      -3.71004657
H        4.64465475       2.23789263      -0.92928410      -0.13767804      -0.18741864      -0.03792529      -0.05177695      -0.00311775      -0.02614120       0.06423838      -0.02494809      -0.03337842       0.01647173       0.06855175       0.01059508       0.04312801      -0.12561708      -0.17987575      -0.07056244      -4.01300177
H        4.52968502       1.80738819      -2.67165875       0.03541109      -0.01125611       0.22207856      -0.04765595       0.12377373       0.03455369      -0.09334955      -0.02251371      -0.00287623       0.02886444      -0.08767297       0.00534731       0.06242524       0.03104074      -0.03937061       0.23186280      -4.00133009
H        3.98200083       3.36858130      -2.08946967       0.06354629       0.37215364      -0.05250117      -0.05085781      -0.04215392      -0.01177497       0.00875503      -0.01987400       0.07129078      -0.01020060       0.00133501      -0.01179204      -0.01055655       0.07295809       0.36975245      -0.05570788      -3.95023586
H       -4.53333282      -0.74598950       1.56942284      -0.55367148       0.29126427      -0.58987981      -0.06123381       0.05457061      -0.02855199       0.04487769      -0.03230677      -0.01498211      -0.01593495       0.04553994      -0.01751200      -0.00221013      -0.53797442       0.30010352      -0.57915805      -4.00709735
H       -4.28184223      -2.21414232       2.54766488       0.03729420       0.32901907      -0.13779594      -0.05386397       0.02057107       0.01734903      -0.02758920       0.10145580       0.06768228      -0.04614584       0.00599156      -0.01115562      -0.04135915       0.06577124       0.30115202      -0.13667784      -4.02389897
H       -4.09579754      -0.61382568       3.28736544      -0.01317153      -0.13825704      -0.29973510      -0.04981707       0.00725637       0.01783549      -0.02800489      -0.06915759      -0.02500672       0.06946721      -0.06794986       0.03422528       0.06396086      -0.00028916      -0.13822311      -0.32958173      -4.00556497
H       -2.27093601       2.05275631       0.59280598       0.19190773      -0.14495414      -0.42243546      -0.05544140       0.03948337       0.00429502      -0.04927889       0.12161288      -0.02673642       0.01443058       0.00595814      -0.03460633       0.16272205       0.23383061      -0.12118885      -0.39132050      -3.96113074
H       -2.68514252       2.99442148      -0.81189585       0.28262916      -0.15316693      -0.10748988      -0.05608191       0.14058963      -0.10914149       0.03126001      -0.01467563       0.04763714       0.01435913       0.03163386      -0.00413858      -0.00078140       0.26746818      -0.18947728      -0.12415315      -3.93263894
H       -0.59934843      -2.56984472       0.41940722      -0.11410713       0.21019422       0.09107077      -0.05780488       0.12003991       0.02266477       0.02622073      -0.02057373      -0.06148021       0.02741956       0.02123365      -0.04581860       0.03698581      -0.14451239       0.27048317       0.06659365      -4.01309561
H        0.67872161      -3.70574665       0.58090127       0.09653359      -0.21516991       0.19099407      -0.06266528      -0.02310304       0.04781544      -0.00763038      -0.00141158       0.15896587       0.00563723      -0.00766411       0.07373817       0.02949153       0.11515216      -0.21170925       0.19176191      -3.91118483
H        2.23392272      -2.38798952      -0.58256072       0.29639822       0.07206027      -0.00187353      -0.06560910       0.15176228      -0.06861964      -0.00804505      -0.00325590      -0.06708830       0.00026567       0.05124334      -0.04539600      -0.00649998       0.29670147       0.08669625       0.00099444      -3.91437597
H        1.28661108      -0.91872138      -0.37732241       0.06013886      -0.52534527      -0.31827688      -0.03747663       0.02146882      -0.01487714      -0.00547133       0.05293402       0.03793632       0.00429346       0.04538363      -0.02173330      -0.02711273       0.04117594      -0.48592470      -0.33491324      -3.95791666
H       -0.39631867       3.33894300      -1.47801197      -0.11583474      -0.31140336       0.77659154      -0.05274739       0.04059614       0.01089529      -0.04198929      -0.01405733       0.07738097      -0.07234955      -0.02691563      -0.10573171       0.07737711      -0.05733586      -0.26570538       0.78960779      -3.95685319
H       -0.50155300       3.60572577       0.29369465      -0.02606016       0.45910054       0.08795179      -0.06751059       0.07354880      -0.05325370       0.02860051       0.02987333       0.10357291       0.06905981       0.03902673       0.03727879       0.03140752      -0.00695505       0.43856261       0.04669563      -3.94759545
H        1.90535212      -1.69929576       1.89675534      -0.56565875       0.18871777       0.26885176      -0.05717428       0.13753031      -0.01810239       0.02883923       0.03125728       0.00046609       0.03101884      -0.02495801       0.02931414       0.02373346      -0.61944947       0.25094042       0.22594203      -3.97782943
H        0.81606334      -2.79139519       2.68329644      -0.17725657      -0.89792866       1.33740520      -0.06191482      -0.01915475      -0.02230696       0.00425717      -0.02217104       0.06788588      -0.02506161       0.03658497      -0.05419210       0.08529100      -0.16282964      -0.96818771       1.32155847      -3.97111851
H        1.31924486      -2.75456429      -2.53011680      -0.50334102       0.26499367      -0.60465413      -0.06976372       0.00513917      -0.02611059      -0.01686190      -0.05029440      -0.02882635       0.01283278      -0.06016116       0.12838068       0.11609627      -0.51460502       0.24033615      -0.55480123      -3.89915007
H       -0.28959394      -3.01182127      -1.76532686       0.31750041       0.61537099      -0.39155325      -0.06524574       0.02070944       0.08519899       0.04188202       0.06987123       0.01113383      -0.09210835       0.00493708       0.02878995       0.05801734       0.31018355       0.56462149      -0.41337982      -3.92954623
H        0.42468733       1.03594601      -0.90377516      -0.10376123      -0.23003845      -0.56890196      -0.00303752       0.01772870       0.05776272       0.04251002       0.06583044       0.08585927      -0.04622841       0.09039383       0.05818806      -0.06154765      -0.03596910      -0.35851242      -0.63619934      -3.69305882
H        0.24639547      -0.41141596       3.33446860       0.17420602      -0.00746703       0.09542898      -0.05754120       0.02294736      -0.04432411       0.10158779      -0.02929143       0.04133184       0.05217535       0.02030687       0.00311347       0.22027637       0.20769934       0.00002029       0.08368933      -3.83554642
H       -0.25591037      -1.09885216      -3.43336272      -0.43848416       0.16758680      -0.50188130      -0.17672215      -0.22729630       0.00444779      -0.01437983       0.00388735      -0.18385465      -0.02143532      -0.01720690      -0.03548226      -0.22103769      -0.43581096       0.16054550      -0.55395458      -3.46975618
H        0.78436464      -0.30627859      -2.44545174       0.98699588       0.38622323      -0.25134379      -0.10788973      -0.62197953      -0.29934437       0.00263528      -0.31031672      -0.32011481      -0.03404498      -0.05326582      -0.06768536      -0.17877770       1.06159013       0.44755818      -0.17111111      -3.67127905
H       -0.68584037      -0.56585622      -1.91915917      -0.92052794      -0.50524783       0.20630258      -0.09436257      -0.32830816       0.15355693       0.17443524       0.12986047      -0.18392011       0.02746490       0.10548765      -0.05630966      -0.48972714      -1.01746639      -0.37627615       0.31702942      -3.60565780
51
Properties=species:S:1:pos:R:3:original_dataset_forces:R:3:LES_q:R:1:LES_BEC:R:9:forces:R:3:energies:R:1 original_dataset_energy=-221.513671875 energy=-221.54679994728843 stress="-inf inf inf inf inf inf inf inf -inf" pbc="F F F"
O       -3.06727362       0.18951458       1.90230072       0.12412811       0.87584335       0.44535863       0.28535783       1.15153897       0.12710443      -0.07729091       0.59670457       0.70206540       0.14338206       0.33743037       0.32480245       0.51583375       0.07597854       0.82364161       0.40199953      -4.67798276
O        1.06961012      -2.40508866      -1.51271784       2.23453164      -1.43284082       1.61647403       0.28717420       1.11876512      -0.22033847      -0.01068744      -0.21815067       0.75625934      -0.30437800       0.27249184      -0.28226120       1.15060025       2.10044334      -1.47572437       1.75983471      -4.62190705
O        3.38068986       2.47318959      -2.46239805      -3.12494349      -0.07351830       0.09342489       0.31519175       1.15181412      -0.31676342      -0.22360666       0.17543267       0.95325240      -0.08164912      -0.19059614       0.19085907       0.42066446      -2.91079917      -0.00991707       0.06535606      -4.45922394
O       -0.30472165       2.42137170       0.02897620       1.15656543      -1.32092750       0.22880787       0.26087445       0.56174312      -0.29182093      -0.25099285      -0.25427408       1.27191841      -0.04178726      -0.20766447      -0.21920299       0.67700823       1.18334004      -1.44870086       0.27011919      -4.72481722
O       -0.77445972      -1.66595411      -2.32294846      -3.14371276       0.49517792      -0.30003998       0.23549549       1.36962411      -0.11212918       0.07252260      -0.12248193       0.45728077      -0.19543724      -0.20756407      -0.26851417       0.64526128      -3.08048657       0.40199053      -0.18864424      -4.71633988
C       -2.36999464       1.01339591       2.49140072      -1.02681565       0.30535012       1.06608057      -0.06157362      -2.05569140      -0.18232253       0.38026580      -0.53392949      -0.68783906      -0.39570777      -0.12850325      -0.52218151      -0.51636920      -1.01218277       0.33301241       1.16226710      -5.78751103
C        0.43744025      -1.86051381      -2.39986658      -0.15786017       0.96452826      -0.56938142      -0.06329914      -1.81510793       0.27485412      -0.11745618       0.34652643      -0.58412248       0.67384381      -0.08467679       0.71126628      -1.20551891      -0.31002463       0.88342805      -0.61669194      -5.72833494
C        2.13684940       2.50241208      -2.16700792       5.47859955       0.00364059       0.36600459      -0.10660297      -1.35119255       0.23576863       0.44689453      -0.00504458      -1.53683472       0.02704723       0.31912447      -0.29037931      -0.17385475       5.47701337      -0.08502773       0.32070316      -5.37180492
C        0.16196468       1.26394260       0.13648635      -1.81246293       2.73331046      -0.38455370      -0.05866426      -0.54250293       0.60567322       0.55110981       0.54803022      -1.41559601      -0.12309454       0.54930691      -0.05958205      -0.92988910      -1.88886529       3.04919479      -0.39148024      -5.60635633
C       -1.85298359      -3.04066277       0.43634665       0.64227051      -0.59650332       3.19482613      -0.02891255      -1.77891916      -0.68325406       0.07848712      -0.02476616      -0.13588647       0.45450465      -0.33259593      -0.05332551      -1.13176465       1.54437604      -0.61403561       3.13396810      -5.64204544
N       -2.59736109      -3.47695684       1.38399565      -1.72255993      -2.49963212       5.08195591       0.07236730       0.91182519       0.74016592      -0.28542797       0.15572062       0.37671824      -0.35656477      -0.08501169      -0.36147334       0.73718249      -2.11135193      -2.60203123       5.18136646      -3.60007218
N        1.60285401       3.69922256      -1.83818054      -0.09707616      -3.31302071      -2.24729300       0.09032757       0.39386847      -0.25427012      -0.03497241      -0.15891310       1.08738957       0.11796554      -0.13474239       0.20245309       0.16755393      -0.13363915      -3.30346167      -2.14939491      -4.80753192
N       -0.57334113      -2.96518183       0.54685259       1.40296757       0.16340187       1.49099708       0.04644928       1.12982481       0.03520506       0.06676184       0.07983789       0.08602689      -0.06978707       0.14980316       0.04627745       0.62229389       0.84517008       0.16654493       1.68832973      -4.32049479
N        0.90298438       0.65748632      -0.78775150       1.06122720      -1.07131982      -0.30279991       0.08026730       0.49648465      -0.25513737      -0.50338326      -0.24394706       0.67056804       0.11239758      -0.48502559       0.23130291       0.81583174       1.09762971      -1.36277534      -0.46172401      -4.72597435
N       -1.05738282       1.07875955       2.35716200       3.14614272      -1.03736639      -2.03279042       0.07895379       1.37919689      -0.05909754      -0.36306782      -0.10336003       0.39311449       0.26067841      -0.22270889       0.18902619       0.40975076       3.22054608      -1.03511963      -2.15839926      -4.65265835
N       -2.48254442      -2.66945267      -0.58676982       0.59871370       2.66477752      -5.53459597       0.08779870       0.68352393      -0.12520457       0.19401251       0.09244418       0.33384214      -0.24526470       0.03166881      -0.28976875       0.66062838       0.45196011       2.57142414      -5.53676018      -3.78397759
C       -2.86188817       2.05931139       3.56250286       0.59034336      -1.84900749      -0.71036834       0.09679390      -0.00382588      -0.04465912      -0.07439679      -0.08471777       0.02278600       0.14251687      -0.08939919       0.12966619      -0.00114415       0.55454541      -1.84472291      -0.69563376      -4.26289348
C        2.20967722       4.92963219      -2.00009108       2.43210316       1.52388608       1.13956344       0.08612788      -0.12841276      -0.01301177      -0.02885183      -0.18602862      -0.62054187       0.11317169       0.06577946       0.13919887      -0.13880809       2.40381610       1.47606047       1.13548235      -4.89149310
C        1.13896453      -1.16385114      -3.49812841      -0.13348480       2.23493719      -1.27713692       0.07678929       0.00271815       0.05406332      -0.08150458       0.00364265      -0.09122348      -0.10854517      -0.14834162      -0.13413482       0.14616306      -0.01799915       2.34370727      -1.26614831      -4.69646926
C        0.35021088      -2.91757798       1.67751133       0.24748389      -1.68233955       0.87783700       0.03595965      -0.18727794       0.27393565      -0.20507982       0.02900982      -0.15146522      -0.03060141      -0.10188923       0.26235633      -0.51041769       0.40445588      -1.70161017       0.72413340      -4.97399942
C        0.37247774      -1.68080413       2.58297014      -1.31354368       0.60204220       1.02852392       0.09243440      -0.14369201       0.06149985      -0.07587286      -0.05099738      -0.19075431      -0.12352250       0.08497658       0.03726082      -0.08346248      -1.30451172       0.59415657       0.86406491      -4.72050386
C        1.97967339       0.02028209      -2.97959232       1.92896402       0.57153249       0.60287517       0.11608759      -0.08231087      -0.05150410      -0.07926792       0.14982731      -0.07906256      -0.34007610      -0.06216856      -0.09979105      -0.10436256       1.75809675       0.67542413       0.43005721      -4.58276875
C        0.85401607      -0.41976631       1.90425694       0.19226421       0.34012964      -0.21283658       0.08174213      -0.16028472      -0.04125857       0.02255191      -0.01157410      -0.19601498       0.03307533      -0.06537221       0.00886148      -0.15660180       0.19660719       0.33008085      -0.10592761      -4.80271767
C        1.37912810       1.16371822      -2.12205768      -0.73888654      -0.75830334       0.64684045      -0.01624339      -0.22152062       0.01499412       0.24912118      -0.03058828      -0.30328876       0.14613964       0.25610467       0.06366031      -0.75599700      -0.72745073      -0.67101762       0.68196804      -5.00783051
C       -0.29910898       0.35243642       1.28190839      -0.40600821       0.23998775      -0.28460214      -0.00958528      -0.36634757       0.12937967       0.07711554       0.18729788      -0.18231260      -0.38390203       0.15131743      -0.27617027      -0.37541224      -0.49082917       0.26494923      -0.10394737      -4.97557579
H       -2.33292055      -4.02955246       2.25586510      -0.46340793       1.42111921      -2.19924903      -0.16935888      -0.26517620      -0.12809369       0.01786857      -0.12851158      -0.42332796       0.14406585       0.18806535       0.40004243      -0.40532153      -0.40122412       1.38136948      -2.15505701      -3.51115468
H       -3.53195381      -3.42471123       1.06239438      -1.07906926      -0.55424052       1.10622454      -0.16721939      -0.41427513      -0.13914570       0.01516189       0.09160187      -0.10072549       0.00154696      -0.29788430      -0.24729127      -0.14568728      -1.11035205      -0.58952952       1.05311448      -3.54793154
H        0.79256940       3.63940716      -1.34753942      -3.03668094      -0.03620356       1.54091334      -0.16675270      -0.20307320       0.16239945       0.02499761      -0.06846155      -0.31053984       0.12130734       0.09396278       0.05753866      -0.24960440      -3.00968998      -0.03036068       1.49376260      -3.61689869
H       -0.27514547      -2.81799579      -0.34793359       2.95271826       0.90071350      -2.72520471      -0.12062890      -0.24876679       0.26372065       0.31028509      -0.08109700      -0.20743294       0.16931323       0.18739652      -0.10973694      -0.50425512       3.00478708       0.89927643      -2.90447153      -3.53259272
H        0.92411900      -0.36453411      -0.63743639       0.60404396       0.85950971      -0.65507740      -0.17638861      -0.17620440       0.01133180      -0.05321750       0.02688764      -0.35570948      -0.11190519      -0.09120438      -0.04359282      -0.07914072       0.61003923       0.86437411      -0.63539902      -3.50335583
H       -0.46585849       1.68059087       2.91888666      -0.64672405       0.03429207      -0.26890132      -0.20031138      -0.19598007      -0.04044208      -0.02899987      -0.07736886      -0.19400306       0.03223432      -0.09516987       0.05036349      -0.11779192      -0.65425849       0.01275030      -0.25017011      -3.59500138
H       -1.84391630      -2.11857033      -1.27911091      -0.71349382      -0.69824016      -0.01798534      -0.03132624      -0.37679218      -0.23469273       0.04821873      -0.18367356      -0.22141813       0.10369433       0.40164623       0.42181479      -0.15039563      -0.58813525      -0.59920835      -0.27873100      -3.75394994
H       -3.45831752      -2.50585890      -0.62993920      -0.54240066      -0.16746420       0.19419803      -0.15524982      -0.38255150      -0.02588494      -0.05592737      -0.02136846      -0.20156568      -0.01750685       0.04273713       0.02553443      -0.14939741      -0.47004041      -0.04848364       0.31667724      -3.57323310
H       -3.92520285       2.01267481       3.40157080      -0.38694376       0.59543812       0.60157168      -0.05287107       0.13665957      -0.06815409      -0.09160607       0.01509805      -0.02367969      -0.00437159       0.01809231       0.00285714      -0.02080185      -0.39117709       0.59741893       0.58854361      -4.00104863
H       -2.52930355       1.69633698       4.56138039      -0.58434707       0.21221520      -0.64026630      -0.05024819      -0.03240818       0.00682565       0.05993010       0.03031049      -0.03255380      -0.06201506      -0.00252570      -0.00492785       0.11272948      -0.57432729       0.20969276      -0.65142852      -4.03289185
H       -2.38683319       3.02104115       3.38526201      -0.36208516       0.04034394      -0.12970932      -0.05222964      -0.02634849       0.06678489       0.02954875      -0.02778980       0.13816680       0.08418560       0.00261688       0.00905214      -0.01049332      -0.34625766       0.05480519      -0.12180640      -4.06924906
H        1.47195494       5.70697784      -1.83640599       0.18641859       0.13071713       0.27771440      -0.05969138      -0.02476694      -0.10943357       0.01937862       0.02069824       0.16084863      -0.03150989      -0.02116615      -0.02570268      -0.01336135       0.22747210       0.13953236       0.25348930      -3.94666395
H        2.73940516       5.15090036      -2.91907406      -0.40112448      -0.59577256      -0.58532524      -0.04970546       0.05737619       0.11057213      -0.07889717       0.10438788       0.16406250      -0.08653642      -0.11722074      -0.20324398       0.11432579      -0.43985629      -0.58965493      -0.57212415      -3.97170822
H        3.04953456       4.92366076      -1.26803565      -0.46803308       0.90076882      -0.12945157      -0.04258116       0.05905613       0.10607364      -0.00078093       0.02373254       0.04432166      -0.05192383       0.03914483       0.03670092      -0.01374628      -0.49903247       0.87989069      -0.13659034      -3.80960063
H        1.79594398      -1.78296959      -4.07707071       0.46511543      -0.47183850       0.04105939      -0.05956028       0.03275447      -0.03406626      -0.04161311      -0.03566657       0.09762167       0.11458698      -0.04216919       0.05934664       0.05019578       0.40900203      -0.45803323       0.06864333      -3.92685862
H        0.47215793      -0.67212528      -4.25473928      -0.01741086      -0.89165771       0.84890962      -0.04826889       0.02787228       0.00769717       0.10629426      -0.02313310       0.03084401      -0.05178218       0.05847842       0.00589736       0.19239471       0.01292794      -0.91109096       0.88917837      -3.84161727
H        0.07341507      -3.75274014       2.35198212       0.14883097       0.25295478      -0.27865973      -0.05909362      -0.00978729       0.06829830      -0.04688139       0.02881261       0.14378162      -0.05619264      -0.02251837      -0.13106352       0.07514882       0.10916080       0.24693120      -0.33135618      -3.80437064
H        1.38987076      -3.19542694       1.34830344      -1.23194170       0.51764631      -0.19876626      -0.05383132       0.11072466      -0.03912193       0.00944760      -0.03382227       0.02221052       0.03261727      -0.02063302       0.02853950      -0.00587985      -1.28388403       0.60006912      -0.14288216      -3.94177028
H       -0.67600358      -1.54021907       3.01334190       1.48211682      -0.13243668      -0.23188676      -0.05663824       0.07925680      -0.02591887      -0.04085587      -0.01555598      -0.03885655       0.08162569      -0.06792436       0.01252956      -0.00399589       1.44064667      -0.12751548      -0.21818636      -4.02010062
H        1.11159074      -1.82554245       3.36868763      -0.42146266      -0.73312479       0.32242674      -0.06409100       0.01520761       0.02426862       0.02043351       0.00011226       0.07816423      -0.01513567       0.05220611       0.02359897       0.09794285      -0.38687336      -0.67991980       0.30245936      -3.85300823
H        2.84337068      -0.28960401      -2.39554548       0.20275898      -0.49310541      -0.32588160      -0.05218826       0.10078378      -0.01148369       0.03583865      -0.04089914      -0.00172861       0.02955151       0.06102748       0.00663609       0.05549157       0.21401220      -0.48978049      -0.31525303      -3.92600414
H        2.36291766       0.48054302      -3.89779472       0.13603869       0.17935340       0.49906805      -0.04933565       0.06087389       0.06121184      -0.08008409       0.00173144       0.08823716       0.07900721      -0.01325545      -0.00738249       0.05168069       0.12473125       0.24486652       0.60207866      -3.87501335
H        1.59874201       0.26751852       2.41056585      -1.32880259      -0.73969567       0.21399027      -0.05209192       0.08229069       0.06070392       0.09324003       0.08406873       0.07067026       0.07230043       0.05344398       0.01378790       0.03300098      -1.32964807      -0.74791609       0.21359446      -3.96068003
H        1.50065756      -0.87582755       1.20072651       0.60651422       0.22938131      -1.48900282      -0.05502993       0.09130813      -0.03122842      -0.04500761      -0.00370673       0.04576908       0.06931690      -0.05881316       0.00446335       0.02439687       0.68020259       0.19663450      -1.39314570      -3.65402951
H        0.55376327       1.35945868      -2.68829679      -3.00228095       0.87288302      -1.07509112      -0.07035363       0.06131053       0.02035937      -0.09460583       0.02816951       0.04167490      -0.11873341      -0.04461643      -0.06966473       0.11240102      -2.99272370       0.72236832      -1.15836111      -3.58457633
H       -0.99003863      -0.30230516       0.68479717       0.34217960       0.29018137       1.28382504      -0.03917843      -0.07318553       0.01554627       0.14084984      -0.05025766       0.04888901       0.04785397       0.02453944       0.00369645       0.06499441       0.31865998       0.46204251       1.33852304      -3.83793547
42
Properties=species:S:1:pos:R:3:original_dataset_forces:R:3:LES_q:R:1:LES_BEC:R:9:forces:R:3:energies:R:1 original_dataset_energy=-191.61651611328125 energy=-191.71650508956955 stress="inf -inf inf -inf inf inf inf inf inf" pbc="F F F"
O        3.16033578       3.04477143      -0.01905423      -0.56540227       0.15230437       0.27523646       0.28420779       0.77500109      -0.28766070       0.01425661       0.12459904       1.37788526      -0.19601814      -0.14233628      -0.25074514       0.33766460      -0.57543343       0.16443377       0.27961718      -4.65016278
O       -0.52386272       2.20185542       2.39616156       0.36404446       1.12360036       0.47137049       0.35736442       0.77390869      -0.27294914       0.01588001      -0.01870162       1.62439858       0.21771699      -0.02242436      -0.09471898       0.46625015       0.38838004       1.06676475       0.46776621      -4.49338098
O       -2.00494909      -3.36731052      -1.84430671       0.11373720       1.22452915       0.18146387       0.29763874       1.10162965       0.03935553       0.27361100       0.37901757       0.91165758       0.31791506       0.34388123       0.18465907       0.50284061       0.12508355       1.21657190       0.21609564      -4.54265276
O        1.50652742      -0.58886975      -1.35182464      -1.07745600       0.61328697       1.08266008       0.26459569       0.93775116       0.08322450      -0.29325332      -0.01627007       0.66079988       0.27630205      -0.48744018       0.21515335       0.90572815      -1.08321459       0.60536305       1.07152185      -4.73646631
O       -1.15411639       0.11257245       2.50784922      -1.15292680      -1.03132594       0.42363614       0.26202381       1.13106608       0.36481862       0.05081230       0.16758144       1.05974829      -0.14282103      -0.04421596       0.02848649       0.81725400      -1.04646795      -1.07185659       0.42692881      -4.73505508
C        3.66762757       1.95726502       0.18526685       1.20385599       1.83720124      -1.04425037      -0.05540879      -1.38213821      -0.19549454       0.14589108      -0.47196944      -1.95537600       0.41074819       0.44451082       0.51758404      -0.17945162       1.18644616       1.81683435      -1.03303312      -5.88361132
C       -0.26086324       1.00618887       2.49576235      -0.52636242       0.06655604      -1.59923565      -0.05881435      -1.46761761      -0.08763343       0.06488864      -0.12966123      -2.10431379      -0.10122479       0.11871658       0.06940698      -0.04134470      -0.53470191       0.18911976      -1.60679454      -5.57032101
C       -1.11664689      -2.63909149      -1.37649417      -1.82348454      -2.04319644      -0.11703859      -0.09032294      -1.54047741       0.03379833      -0.53608370      -0.05634664      -1.16199533      -0.24466763      -0.56141668      -0.26612237      -0.34990614      -1.81893960      -1.98060389      -0.17901489      -5.62670209
C        0.84319407      -0.16155529      -0.38615367       2.16579676      -0.61485404      -0.82342994      -0.07195700      -1.61226930      -0.27660729       0.42126876      -0.25103427      -0.51955979      -0.46946168       0.55617655      -0.46785399      -1.02084331       2.17339044      -0.59397234      -0.77200393      -5.64916984
C       -3.63839984       1.52644956      -1.20669174       0.88336658      -2.08123446       0.15196052       0.01768540       0.02656342      -0.08069164      -0.05739074      -0.04717325      -0.14791113      -0.00105882       0.07386492      -0.18532358      -0.12169490       0.82524320      -1.98079313       0.17849703      -5.49320230
C       -3.14908290       0.60016602      -0.30042568      -0.41769114       0.08981138      -0.66359270      -0.04548035       0.07108951       0.03423475      -0.06553026       0.04569538      -0.47297136      -0.04805511      -0.33816863       0.13149429      -0.28318262      -0.41344875       0.10639405      -0.68210870      -5.52009736
C       -3.08873963       2.62563848       0.63369495       0.18267678      -1.71022284       0.01896376      -0.06309088      -0.17523677       0.08606276      -0.17597011       0.16067296      -0.38407157       0.21282168      -0.21926258       0.28219304      -0.36157617       0.19052240      -1.66010207       0.03580943      -5.87806101
N       -3.54428005       2.75622535      -0.61916316      -0.18719871       1.74924409      -0.47268519      -0.04089546       0.07958778      -0.08640234       0.17498437      -0.13498462       0.37045215      -0.14643006       0.28774170      -0.25430533       0.32158119      -0.17289774       1.66893052      -0.49085084      -5.00124235
N        0.05665278      -3.17193198      -1.06503940       1.74665952       1.13169920       0.67588592       0.10795140       0.89801268      -0.21073182       0.21762159      -0.28208018       0.65967282       0.00895370       0.21464546       0.03928907       0.20766976       1.78029252       1.09608057       0.67315528      -4.82419033
N       -0.42769164      -0.49780446      -0.13701442      -0.66015857      -0.24530633      -0.58740741       0.08515226       1.31812483       0.26551783      -0.16091823       0.32432307       0.50035152       0.21572704      -0.09156444       0.24371231       0.58079054      -0.66352337      -0.33229957      -0.49400737      -4.73890939
N        2.99548650       0.86208016       0.51685959      -1.55799294      -2.38833737       0.41014156       0.08125462       1.03026760       0.50272098      -0.12451196       0.37536292       0.97583949      -0.17276710      -0.29455830      -0.25892385       0.20765577      -1.57035028      -2.38303851       0.42747223      -4.66360810
N       -2.92281175       1.29861426       0.87353057      -0.12954217       1.60333455      -1.77921200      -0.05170492       0.07248075      -0.12155283       0.20775362      -0.10926140       0.42755553      -0.20943207       0.34806129      -0.20076767       0.33722395      -0.14707768       1.53781415      -1.66853126      -4.90167445
C        5.17902946       1.80833948      -0.06415352      -0.22564834      -0.43505549      -0.30303600       0.09742982       0.32258797       0.01965317      -0.05459689      -0.06621338      -0.06754101      -0.00902748      -0.10985220      -0.02654426      -0.11673753      -0.22243159      -0.42287592      -0.30544705      -4.34439319
C        0.51626617      -4.54912138      -1.20161223      -0.18742450       0.20093347       0.46206686       0.08491799      -0.19438053       0.21391864       0.02895639       0.12732084      -0.39956955      -0.00707389       0.01096386      -0.05806057      -0.15241147      -0.20027592       0.19623622       0.48486078      -4.77718507
C       -2.81515980      -0.88162100      -0.56499702      -0.50638938       0.25319940       1.37616158       0.05774856      -0.14114050      -0.04613658       0.05675646       0.09528574       0.04456417       0.01530738      -0.07857133       0.03404802      -0.12175447      -0.50083495       0.21813073       1.37038695      -4.80854066
C        1.12565017       0.49383241       2.18163538       0.78306466       0.26991725      -0.94345081       0.06929035       0.19905853      -0.09743022      -0.12012032      -0.11364835      -0.01797451       0.04780200      -0.09967841       0.05870744      -0.05032125       0.84193918       0.24234441      -1.04407739      -4.62709284
C       -1.39168787      -1.15165734      -1.06385076       1.19030964       0.96114910      -0.09850871      -0.02914881      -0.50565544      -0.10548682      -0.11224559      -0.30370952      -0.29707954      -0.19378347      -0.14908452      -0.09030917      -0.36390672       1.15229566       0.94096952      -0.01058439      -5.10844351
C        1.50325990       0.78022808       0.66886193       0.68101984       0.01067538       0.66337693       0.00286731      -0.63428035      -0.10529740       0.05414281       0.03369138      -0.10314550       0.09573810       0.09874845       0.15752297      -0.15727370       0.57795783       0.06560745       0.68459025      -4.85952829
H       -3.95231342       1.24333811      -2.20419264       0.01974403       0.81802827       0.15284321      -0.07697237      -0.09477658       0.02057935       0.02086708      -0.10786431      -0.00700314      -0.03272143       0.06416474       0.01319887      -0.00422408       0.01400120       0.81183599       0.15632537      -4.13140335
H       -2.78629255       3.42861915       1.27665615      -0.11384225      -0.07313279       0.24618912      -0.07779515      -0.06587078      -0.01627455      -0.03234552       0.08531604      -0.09291022       0.00452198       0.00244608      -0.00082322      -0.09165893      -0.11102669      -0.10067783       0.23277618      -4.13093361
H       -3.67425394       3.68061566      -1.10524750       0.09678576      -1.66306639       0.95450848      -0.19757430      -0.24487692       0.05661961      -0.00570551       0.09154118      -0.35903166       0.07843771      -0.09180476       0.12877856      -0.22459578       0.13356424      -1.65233327       0.96036119      -3.66099359
H        0.78169662      -2.51246119      -0.83560848       0.00702842       0.06286863      -0.03852805      -0.15906978      -0.26238368      -0.08130948       0.00247332      -0.11519127      -0.24825739       0.03702348       0.00225259       0.05888204      -0.17323659       0.03980731       0.04501483      -0.02696082      -3.53889959
H       -0.75991225      -0.20395726       0.76488858      -0.48182729      -0.29712495       0.56119078      -0.14083298      -0.07937762       0.09554255       0.16252973       0.08760632      -0.14224452      -0.04212207       0.23777799      -0.06854114      -0.62027154      -0.42506189      -0.23321911       0.38341412      -3.66832726
H        3.52648664      -0.01619299       0.50516933      -0.70458311       0.71388763       0.02334016      -0.19866106      -0.09856469       0.06090627      -0.00235449       0.00471167      -0.28700589      -0.01758723      -0.01628347      -0.00599358      -0.20750427      -0.71520719       0.70298943       0.02541762      -3.58809862
H       -2.46368814       0.87551087       1.68825173       0.85716033      -0.14830184       1.00440979      -0.12220180      -0.50809248       0.21233204      -0.27752396       0.09990064      -0.24408034       0.22729844      -0.16543727       0.12206421      -0.44078789       0.72206796      -0.06773186       0.84413107      -3.98009860
H        5.73388672       1.54898655       0.85196775      -0.21067804       0.09618279      -0.42078620      -0.05344339       0.00491760      -0.01772097       0.05680280       0.04762893       0.00533779      -0.02570744       0.05754256      -0.01373072       0.04733620      -0.21084424       0.08413508      -0.41281326      -4.07595644
H        5.26885128       0.98821157      -0.80223143       0.33463812       0.33869043       0.39942539      -0.04860332      -0.07367574      -0.02487650      -0.01026236       0.00432449       0.04905437       0.04416887      -0.03501216       0.03593318       0.02686001       0.33740593       0.34951175       0.41163308      -3.96492357
H        5.56931496       2.74326563      -0.52091461      -0.40492240      -0.72356087       0.52361053      -0.04570035       0.09956250       0.06452750      -0.02611106       0.07943923       0.06019397      -0.03489067      -0.03726240      -0.04123603       0.00664050      -0.39991222      -0.71802627       0.50271813      -4.04734076
H        0.24994272      -4.94231701      -2.18280935       0.21632448      -0.07630800       0.15387230      -0.05359576      -0.03281897       0.00654996       0.02722453      -0.00019139       0.01518312       0.01947934      -0.00746389       0.15253535       0.07080881       0.20557888      -0.05515828       0.14985939      -4.05491661
H        1.60893512      -4.54233694      -1.00444007      -0.75537962      -0.05668401      -0.48360023      -0.05663702       0.09262731      -0.10017692      -0.00046221      -0.02970454       0.00297139      -0.00713590       0.02155181      -0.02605758      -0.02754891      -0.75807606      -0.06874513      -0.46963741      -3.96852943
H        0.06523061      -5.16414881      -0.41167185      -0.02487649       0.03084646      -0.37965673      -0.05624134      -0.01438181      -0.01558092      -0.04709034      -0.00397182       0.08476799      -0.01813750      -0.01485747      -0.10782320      -0.00138486       0.00023048       0.04486402      -0.38533764      -3.99107094
H       -2.93942571      -1.46168840       0.34869355      -0.03808036       0.23482265       0.26284477      -0.05626690      -0.02494143      -0.01250227      -0.03032097      -0.01756633       0.04066186      -0.04689753      -0.02933691      -0.07046071       0.04373072      -0.04741685       0.19630941       0.26691562      -3.92860083
H       -3.58074760      -1.29163384      -1.20428932       0.17154177      -0.06767187      -0.57236820      -0.05590672       0.11054149       0.05180744       0.04243653       0.03719248       0.04871501       0.03763598       0.04193602       0.01666632       0.01337473       0.16347113      -0.02810474      -0.55701220      -4.00090482
H        1.86405396       1.00078464       2.78245878       0.20535748       0.12990505       0.07454161      -0.05702326       0.10879658       0.02811555       0.05365289      -0.00315314      -0.01217552      -0.00783344       0.06314434       0.03246613       0.08900777       0.21703998       0.12241575       0.08674988      -3.95529248
H        1.17862701      -0.56388974       2.33080387       0.04319276      -0.59071803       0.40137193      -0.05905512       0.01725604      -0.00005771       0.04392281      -0.01627700       0.11965765      -0.03766776      -0.01404382      -0.03574344       0.00719462       0.01875567      -0.63320194       0.38607592      -3.94403483
H       -1.29037130      -0.62984717      -2.00613689       0.17811622       0.01560564      -0.41916755      -0.06616899      -0.03141023       0.03979207      -0.02801157       0.03233685      -0.00867631      -0.02875798       0.03742204       0.00678660       0.11126129       0.20947757       0.03297055      -0.41486797      -3.80679159
H        1.08424187       1.75387573       0.46981436       0.30821553       0.51427674      -0.19894069      -0.03915188       0.01353584      -0.03750338       0.02407577      -0.10857442      -0.00657431      -0.02631775       0.02452699      -0.00548380       0.01074412       0.31419157       0.46109844      -0.16999643      -3.84110374
