192
Lattice="12.429 0.0 0.0 0.0 12.429 0.0 0.0 0.0 12.429" Properties=species:S:1:pos:R:3:forces:R:3 energy=-939.4722189747308 pbc="T T T"
H        5.14707034       9.94376480      10.78262789       0.46755819      -0.04372806       0.37932547
H        3.53913310       2.98329556      11.14595941      -0.63229039      -0.48210220       1.15473740
H        0.57545627       1.03590127       4.00503071       0.39997987      -0.40015197      -0.21670200
H       10.10040676       7.98376998      12.34305063      -0.80714435       0.60487062       0.62325042
H       12.09760280      10.64370212       7.54653165      -0.84831312      -0.41882732      -1.08452699
H        7.89808615       5.36774812       5.77881506      -0.85344806      -0.34567963       1.01268122
H        0.52350617      11.31349789      10.27758844       0.10687064       0.83764352       1.25721190
H        8.89737787       2.86964018       3.34152129       0.29611774      -0.26129285      -0.14639219
H        2.34914762       5.53376101       4.38377780       0.26113860       0.39780724      -0.13557083
H        0.89990741      10.75179640       1.87634714      -0.47028742       0.44134603       0.97024579
H        0.33799302       9.19096949       9.32030527       0.90892779       0.35389143      -0.60355389
H        8.65159366       9.40977059       1.70683308       0.29486551       0.54512022       0.66138437
H        7.69767740       4.47682677      12.34350450      -0.79965486      -0.57743517       0.25694255
H        5.17755929       4.84031142       1.46499769      -0.04049913      -0.11945008      -0.08806038
H        1.60501710       5.41424474      12.30368262       0.64353388       0.34457966      -0.26754413
H        2.43560419      10.83351542       5.83285679       0.22518496      -0.23699740      -0.48181770
H        8.28541896       2.09557673       9.90171591       0.82488258       0.51066534      -0.41243826
H        7.89306801       3.86867109       8.03633503      -0.27282016       0.62318304      -0.20958638
H        3.09430202       0.72580931      12.34452724      -0.06261554      -0.36047482      -0.13406168
H        8.68925907       2.02718154       7.61489975       0.27658789       0.36838911       0.18248098
H        0.70991346       7.66054676       3.94041641       0.11007600       0.28601349      -0.27030116
H        7.04529574       0.18020482      12.27287559       0.20570492      -0.32270190      -1.85692770
H        4.07358603       6.84839464       2.01139865      -0.06670935       0.81421004       0.16222000
H        0.77618588       1.38297014       6.16018327       0.18961343       0.52945147       0.39302609
H        9.69074555       7.96629397       7.26861771       0.21155813       0.15568577      -2.48301605
H        2.55501296      12.33512002       2.61832501      -1.39880291      -0.11023669       0.58314405
H        0.68793685       3.99822907      10.70644368      -0.02682035       0.06255441      -0.48742130
H        9.54580157      11.49764717      10.72813667       0.36902280       1.16155012       0.57718546
H        2.21677834       8.04670137      11.99349155      -0.27584229       0.37753135      -0.14316698
H        0.31146308       1.47061964       8.56078330      -0.46907833       0.25686351      -0.07405221
H        5.72134637       1.59476823       5.42715304      -0.24461519      -0.38398498      -0.64240463
H        8.39670068      10.62373110       8.66061697      -0.12012263       0.44038921       0.12113446
H        4.02270649      11.02187153      11.06137642       0.22791582      -0.19864677      -0.29483155
H        4.25078128       2.74367210       9.74399640       0.31265428      -0.05878286      -0.00097753
H       11.62018283       1.06724311       4.63116842      -0.30179426      -0.56642591      -0.10934210
H       11.10469733       6.84468840       0.07578483      -0.12706869      -0.05728946      -0.07724478
H        0.10639946       9.72690274       6.44599018      -0.75801511       0.24520139      -0.10630913
H        9.11774809       4.90830772       5.05081686       0.70987107      -0.78699156      -0.07063255
H       12.09820666      11.96768554      11.45715696       0.33373481       0.19224209      -0.25814788
H        9.22941299       2.02761405       4.57246873      -0.04782901       0.08205288       0.69531922
H        1.07939934       5.12322568       5.05424389      -0.40530207       0.04417866       0.11506546
H        1.25382401       9.65947309       1.02509849      -0.14072997      -1.05255850      -0.37121002
H        1.64582325       9.28093087      10.06603091      -0.11165461       0.40959616      -1.11465953
H        8.18000274       7.89498998       1.51149734       0.62423470       1.84598809      -0.59433112
H        6.23748898       4.04349570      12.04849134       0.53836112       0.02758426       0.69348645
H        5.84138649       5.81460208       2.43244675      -1.24741262      -0.52742500      -0.20214985
H        2.25312629       6.30723875       0.90572663       0.09598190       0.70991353       1.95983652
H        2.33387872       9.48382599       4.99455329       0.32324491       0.58440545      -0.24134393
H        7.18391785       2.36738021      10.95892803       0.03312326       0.56344512       0.41582688
H        6.84995981       5.14199579       7.80047226       0.17203466       0.88069662       0.72347027
H        2.13162939      12.06370145      11.77310593      -0.32311620       0.00897517      -0.03259895
H       10.01867836       2.62548437       8.08003688       0.36261844       0.20698866       0.08224576
H        0.09937504       8.66237394       2.80038427       0.37424509      -0.96648971       0.70658351
H        6.27309788      11.50191031       0.82144690      -0.25934615      -0.80769485      -0.94349661
H        3.98040382       8.45758530       1.64963981      -0.21745613      -1.03761679       0.76149754
H        1.90017443       2.19145685       6.97561785      -0.13791880      -0.02886083       0.03268927
H        8.75715769       7.45601080       8.43009601       0.44350816       0.31488011      -0.23552458
H        1.98831265      11.29961498       3.62026806      -0.20373209       0.47026656       0.28471566
H        1.33293313       2.98597085      11.72490693      -0.20115752       0.59523861      -0.11326395
H        9.96667403      10.19433892      10.04391444       0.09059350      -0.02279859       0.30167738
H        2.96199951       9.34109234      11.48936494      -0.44523341      -0.20074141       0.21947937
H        0.02451108       1.27033412      10.05629086      -0.79965600       0.30208121      -0.96704478
H        5.56528109       0.20102110       4.58554858      -0.29461884      -0.04880935      -0.71400922
H        6.97831644      10.91913329       8.02516214      -0.59806633       0.20202271       0.26399998
H        4.56463427      10.93291837       8.49833700       0.78100461       0.75468564      -0.87402494
H        6.13040777       1.59716888       9.02385367      -0.62666124       0.58022134      -0.15973959
H       10.14924283      11.79136704       2.53145599      -0.10320203      -0.55715451       0.13495463
H        7.27196068       9.23949664      12.27978857      -0.30903991      -0.05075775      -0.56042909
H        1.36456664       4.08800948       8.57145163      -0.48821852       0.75732794       0.26637821
H        3.58828760       6.70107318       7.18994825      -0.25949821      -0.00652295       0.96047418
H        8.33617034      10.35535372       4.18045425       0.83417559       1.15574784       0.10294734
H        5.50002843       4.31158935       5.05887298      -0.30637393      -0.55673310      -0.17853551
H        8.00186893       6.17506338       3.16540885       0.06075373      -0.02736643       0.72626285
H       11.61923096       6.78349004       6.54399972       0.58855799      -1.05341173      -0.10229438
H       10.43965847       1.18893919      12.06592295       0.05440396      -0.69977689      -0.19786406
H        7.55164036       0.46968981       5.90324206      -1.38421233       0.04695817      -0.57013045
H        9.81862317      12.41925166       5.20011798       0.09616120      -0.48854740       0.08858504
H        6.97110181       7.77082243      10.33725131       0.42170414       0.82754418       0.24100546
H       10.39206516       7.88079827       4.69903191       0.83206092       0.55207226      -1.21303698
H       12.31812847       5.02017113       1.69230123      -0.08924622       0.37912373       0.21080812
H        6.63141257       7.74628068       8.10947442      -0.14751359       0.85092695      -0.37508899
H       10.62537478       8.57817504       9.27767600       0.38489463       0.01829726       0.25001940
H        1.88026613      11.01931307       8.10121310      -0.08762228       0.34021005      -0.28604983
H        6.15927630      10.10630991       4.37655622      -1.48654769       0.71577875      -0.23501529
H        4.17524943      10.68354788       0.83923207       0.51739041      -0.23250723       0.59501878
H        9.49136587       5.59627166      11.48821172      -0.21846672      -0.04936341      -0.02792531
H        5.72794968       0.94789435       1.27984997       0.12221233       0.09142701       0.15085005
H        3.04819185       7.36032591       5.40522040       0.53155349      -0.31635381       0.45267959
H        3.33664641       6.83725388       9.36444920      -0.11951160       0.33511767      -0.31468225
H       10.06981240       3.67142197       1.46784243      -1.47372231      -0.10108379      -0.06550569
H       11.39226596       3.08298197       5.10461655      -1.10373019       0.86848801       0.87582727
H        0.63121631       2.79784507       2.91885230      -0.43652137      -0.37425601       0.16018639
H       11.73288910       3.16592648      12.27427607      -0.20195696      -0.23056780      -0.12032501
H        3.84525058       2.31916192       0.93679110       0.93261273      -0.37228339       0.38000625
H        4.50145604       5.00580930      10.42304894       0.04570165      -0.48664929      -0.27842084
H        3.82014433       3.18917660       7.05609209       0.56319784      -0.00207496       0.03663725
H        9.38476084       6.97090191       5.38588888       0.31310824       0.07098213      -0.02450708
H       11.94172004       6.48277116       2.35503826       0.33375937      -0.64205879      -0.84145392
H        7.84591310       5.83851709       1.71420241      -0.15605571      -0.10579824       0.13069862
H       12.28865308       5.73955010       7.56204915       0.18130664       0.07842082      -0.50955512
H       10.30474141      12.18349170       0.31533240      -0.34718152      -0.24054504       0.82070910
H        8.24440407      12.28904940       7.15725974       0.15492522      -0.32250435      -0.73539419
H       11.01676367      11.41726970       5.43807176      -0.47654803       0.52120740      -0.66381410
H        6.15048411       6.57908935      10.01940271      -0.49186997      -0.57625731       0.01422859
H        5.59608791       2.11426498       2.36084511      -0.89573773      -1.11026680      -1.11293672
H        3.09934870       7.79498655       3.91740003      -0.23665836      -0.20637728      -0.33814204
H        7.10326831       9.01831033       7.26584797      -0.34002569      -0.26894788       0.21103336
H       11.26656637       8.33308664      10.69277473      -0.27201167       0.14053386      -0.13169584
H        1.82011080      12.42276001       7.14817344       0.11193175      -0.40307945       0.86711319
H        4.55777678      10.23837126       4.61147445      -0.28989940      -0.04158952       0.23060603
H        4.84541679      10.42684798       2.25499940       0.00148446       0.18930219       0.66001658
H        8.55300944       5.67709447      10.32147872      -0.22062885      -0.72870816       0.59741617
H        4.03640133       6.22278084      11.16748720       0.32605426       0.09429859       0.18444347
H        2.84149459       4.20685911       6.45221598       0.24784278      -0.59483753       0.83141523
H        2.33844728       7.96729783       8.67170555       0.23474992      -1.15657952       0.47807963
H       10.16997799       4.87700739       2.19647104      -1.00475825       0.17557293       0.10413290
H       11.32496579       4.36511458       6.00039205      -0.61444951      -0.52161375      -0.11786257
H        1.51303250       4.01015472       2.88494633      -0.77350077      -0.44498593      -0.35749441
H       10.45680711       3.61945798      11.65573103      -0.58910450      -0.12691637      -0.28456024
H        2.51238618       3.08435305       1.09346042       0.20885911      -0.48865722      -0.64073275
H        8.49804337       9.18267383       5.19974116       0.40607581       0.26262789       0.36923750
H        5.99129977       3.67400268       6.31737599       0.24393826      -0.29032623       0.44639813
H        4.93158805      11.62891905       7.05930828       0.22539103      -0.34921802       1.12467586
H        4.96391570       0.89527331       8.29644494       0.38938607       0.96163203       0.33933956
H        8.77010502      11.89361285       1.92926407       0.39841765      -0.51195660      -0.27799204
H        7.59713619      10.12340162      11.09015876      -0.20830793      -0.43188687      -0.35858775
H        1.47587291       5.57375000       9.01542175      -0.30881697      -0.30733465      -0.08736138
H        4.96895323       7.22561370       6.69012451      -0.34957067      -0.21318164      -0.03666342
O        4.21808427      10.16489088      10.59835218      -0.58811966       0.42104076      -0.12651821
O        4.09389858       3.37223096      10.48615662       0.93190615       0.82529178      -1.35790569
O        0.00904011       1.60756033       4.55206970       0.26988056       0.32537646       0.10184156
O       10.48559816       7.25546229      11.85107203       0.98679416      -0.82211822      -0.03665879
O       11.71006285      10.18983410       6.73630270       1.56397490       0.23380623       1.10513665
O        8.36281762       5.49929917       4.96064052       0.34331245       0.71522423      -0.78977024
O        0.58695709      11.94099272      11.06368240      -0.52203475      -0.92791750      -1.06039640
O        9.11332003       1.95477164       3.62570022      -0.29344267       0.02684106      -0.62097342
O        1.76777846       4.76389096       4.47133209       0.28229067      -0.16748709       0.33373109
O        0.65815317       9.81222274       1.78446037       0.38733558       0.64469620      -0.84625260
O        1.32087004       9.45703094       9.10577866      -0.94597012      -0.54599212       1.84243494
O        8.53102826       8.75157362       1.02325304      -0.83672220      -2.38107430       0.15205460
O        6.90841543       4.02439769       0.35476412      -0.13660273       0.37578482      -1.31126730
O        4.92961875       5.39256850       2.22502564       1.34291621       0.54054242       0.40891125
O        2.32821462       6.08875960      12.42772594      -0.58304180      -0.86624760      -1.81370362
O        2.64420281      10.42900672       4.91838711      -0.50104849      -0.76111036       0.80431256
O        7.46189544       1.77127819      10.26297456      -0.82967412      -1.26018004       0.34240260
O        7.03751055       4.22419110       7.65424656      -0.04361793      -0.80732571      -0.64728666
O        3.04657173      12.20241138      12.10361496       0.51972849       0.16922092       0.37662910
O        9.06575168       2.73603516       8.20897054      -0.27458709      -0.98815269      -0.28529998
O       12.36611292       7.82789513       3.36648383      -0.76879670       0.39171181      -0.24931556
O        6.76544310      12.32169050       0.69223849       0.45381213       0.70168728       2.39398211
O        3.58047705       7.71233827       2.19606297       0.37727616       0.29529586      -0.78933053
O        1.25066558       1.44508669       7.04170756      -0.09910104       0.03286734      -0.75481669
O        9.57849632       7.93418174       8.19128642      -0.72512213      -0.42756868       2.99275897
O        1.68562853      12.07855594       3.06078014       1.58061823       0.25980620      -0.83362260
O        0.71987583       3.75201976      11.65323385       0.62168405      -0.30822696       0.38366416
O        9.23567434      10.85023477      10.09723823      -0.47028552      -0.98190314      -0.32847665
O        2.05929124       9.00454950      11.79143485       0.80687327      -0.35482291      -0.16685998
O       12.02907212       1.63793453       9.22563026       0.93831920      -0.43424256       0.95462773
O        5.80803517       0.61339133       5.41285110       0.34985769       0.49325113       1.40874515
O        7.92311623      10.82518927       7.82351026       0.26530539      -0.75043490      -0.35341500
O        8.07794838       9.46879553       4.38447825      -1.22604250      -1.18165810      -0.59326534
O        5.46815233       3.44670068       5.51951354       0.00478604       0.69788956      -0.23805270
O        5.24386776      11.48229877       7.99976742      -1.06414095      -0.47894826      -0.30695052
O        5.27296854       1.81614373       8.55669786      -0.08031971      -1.35716973      -0.19515599
O        9.56714050      11.30036465       1.90667967      -0.47151694       1.26918797       0.37208799
O        6.90242390       9.47755950      11.37318264       0.61634966       0.28607320       0.45743778
O        0.82367138       4.81762574       8.98179074       0.79559113      -0.37795179      -0.05038670
O        4.27857996       6.53456276       6.53336011       0.78829681       0.28280122      -0.89297784
O       10.09496007       7.64171260       5.56587509      -0.98922935      -0.62865796       0.94392972
O       11.78326695       5.83858800       1.57135686      -0.03613988       0.41995076       0.68275205
O        7.52928250       6.48589688       2.38153455       0.05874240      -0.12260756      -0.92311921
O       12.24821632       6.00414237       6.60653259      -0.65336506       0.60761266       0.32058988
O       10.43662455       0.19568689      11.89861333       0.31000453       0.77312425      -0.49010126
O        8.39952359       0.41400397       6.33724432       1.63766225       0.80419539       0.85476585
O       10.60274808      12.01386875       4.74188417       0.17326398      -0.19056359       0.73257359
O        6.98438759       7.00798658       9.73811040       0.62703506      -0.05917480      -0.41337601
O        5.05388580       1.49718970       1.76787220       0.54516979       1.33684636       1.47822340
O        2.47254131       7.58281220       4.65589430      -0.20091969       0.42505568      -0.30540495
O        6.40430266       8.32461263       7.32228786       0.37438504      -0.57204150       0.19693139
O       11.22166583       9.01053041       9.96786727       0.15831964      -0.29772522      -0.50696265
O        2.22248225      11.50938293       7.32148351       0.27868656      -0.32408348      -0.33496610
O        5.31743819      10.64829516       4.16873909       1.79509745      -0.81039066      -0.34471711
O        4.89140078      10.18416094       1.31541800      -0.52839068       0.28957318      -1.06245260
O        8.84757208       5.02009058      11.01061834       0.42821141       0.94696233      -0.40329748
O        4.69686782       5.97712017      10.48518157      -0.89227414       0.16566177       0.39561815
O        3.00820122       3.66644899       7.27656881      -0.83930135       0.44334417      -1.00173703
O        2.61572043       6.99246409       8.70919494      -0.21289195       0.69000496      -0.17471588
O        9.41641747       4.25363005       1.97540109       2.16735519       0.20275727      -0.17354462
O       10.74867389       3.60296263       5.69513402       1.56411833       0.13040972      -0.73928700
O        0.96534683       3.42686232       2.26761479       1.02277825       0.94809928       0.12728759
O       10.75898105       2.94729910      12.28396795       0.25993801       0.02840620       0.39614230
O        3.11915135       2.69290614       0.40407990      -1.37287885       0.52819632       0.59326284
192
Lattice="12.429 0.0 0.0 0.0 12.429 0.0 0.0 0.0 12.429" Properties=species:S:1:pos:R:3:forces:R:3 energy=-936.6812030389227 pbc="T T T"
H        3.11232487       7.09276572       1.48077154      -0.33443477      -0.02262494      -0.11809279
H        5.26650802       0.82197453       4.01669538      -1.28694271      -0.87441210      -0.85577229
H        6.15541886       9.01056698       9.01321943      -0.16069387      -1.70554729       0.11429675
H        4.69191456      10.37313714       6.10492353       0.41167639       0.08610849      -0.46151725
H        9.32590815       6.74607932       1.69492526      -0.17473751       0.08514844      -0.13986043
H        6.10252084       4.37252993       6.00587770      -0.28479830      -0.19280018       0.29151666
H        4.59791658       4.31071877       8.38533179       0.02441095      -0.86500195      -0.59459605
H        8.09661248       0.35956468       9.20051480       0.22647927       0.45482214      -0.15335936
H        3.62314655       9.88430989      10.66231759      -0.30399304      -0.31668442       0.14077516
H        3.30985487       5.97485723      10.33782229       0.31902133       0.10984849      -0.45810752
H        0.25205274      11.18347376       3.16476447       1.64939615      -1.46156091       2.40516754
H        9.48844883       2.57521578      11.24694237       0.24695232       0.46056761       0.05667371
H        1.28789516       2.40683209      11.28859957      -0.90535308       0.11137648      -0.13380144
H        7.54868969       7.53051166       7.38273263      -0.53191879       0.99044821       0.81230640
H       11.05255594       5.32471187      11.65945486       0.32585879       0.10638513      -0.10111466
H        5.73626319       7.91830779       4.80145826       0.31677739      -1.28395343      -0.30948422
H       12.22744485       7.22826974       7.75748453       0.67363541      -0.06599902      -0.04467974
H        3.19206030       0.67084537       2.77297054      -0.93826783      -0.09330107      -0.51969322
H        6.55362056       4.70829142      12.21633185      -0.58491414       0.87429797       0.20581911
H        6.28753544      11.87628169       5.20545270      -0.13637726       0.70958368      -0.15183697
H        0.83498941       1.20050917       4.07524598       0.41822812       0.87771770       0.37961492
H        7.90828276       1.65289021       3.42112909      -0.18236769       0.17230371      -0.89802578
H        0.47165961      11.34216097       7.15629235      -0.60824000      -1.14225760      -0.66460698
H        9.31653944       3.55238608       3.52773246       0.59677795       0.30512909       0.54336086
H        1.25344950       8.45907232       6.93771754      -0.20897366       0.58337194       0.93931818
H        7.19785594       9.48179835      10.72192410       0.56368868       0.37521330      -1.19244840
H        8.57013641       8.31601647      12.25805962       0.27561456       0.20981948       0.13232251
H        2.63235852       5.87603904       5.54968951       0.18673923      -1.04781468      -0.10949278
H        1.75882476       6.57231308      12.13608408      -0.45935921       1.61339685       1.37702085
H        5.15134025       6.85475027       9.60150704       0.16552942      -0.04833025       0.37941964
H        7.51524512       2.78463855      10.71940427      -1.75042346       0.57921267       0.37021793
H        2.28479081       0.89522300       0.83788138       0.08918743       0.78706438      -0.01838776
H        4.51243297       6.57207311       1.12264745      -0.06190204       0.28854589       0.41802370
H        5.81078036       1.97677513       4.80717151       0.69591767      -0.75005960       0.12106402
H        4.99312027       8.77875713       8.10538892       0.28033696      -1.44331514       0.46713976
H        3.61170744       9.33996474       5.52329661       0.42987877       0.67634373       0.33760731
H       10.45945034       6.83595260       0.58493652       0.40210025      -0.17909526       0.01260790
H        7.24687898       3.87717375       5.08490936      -0.27922278      -0.03297955       0.10811932
H        4.56765923       2.98441017       7.42697885       0.25431501      -0.13706972       0.60861412
H        8.44233652       1.62396744       8.40174149       1.36469698       0.40877826      -0.73825460
H        2.26390355       9.21090585      10.43862965      -0.16095700       0.03221403       0.04299831
H        2.13282610       5.62470019       9.34134751       0.16135915      -0.05076564       2.10138400
H        0.51996104      10.73675101       4.77581083       0.01106761       0.22950557      -0.56573673
H       10.01845418       3.69281575      10.45713333       1.35835287       0.62381130      -1.69598916
H       12.40017478       1.58629808      10.82500410       0.48606639       1.86899644       0.91845662
H        7.66870347       6.06981670       7.61225861      -0.34621889      -2.47102658       2.64200419
H       12.28891124       5.61416971       0.10998773      -0.42649250       0.19260290      -0.17764035
H        6.47590133       6.72248326       5.53770748      -0.88427033       0.59512595      -1.93996879
H       10.74719513       7.21101061       8.03432633       0.13439287      -0.33341310      -0.10868226
H        3.11250848      11.72232862       3.57139442      -1.34705928      -1.19621263       0.12317047
H        6.56489952       5.57749072       1.11010349      -0.04591725       0.07986810      -1.00080646
H        7.10236175      11.17325373       6.31605813      -1.07573627      -0.35677248      -0.89104501
H        2.09817824       2.09505583       4.42178359      -0.31456454      -0.27234434       0.05602651
H        7.24441067       2.58093057       2.32523883       0.16952919      -0.89277651       0.09975056
H       11.59952416      10.64211008       6.48595392      -1.08464815       0.39661452       0.28755253
H       10.27142606       4.63345690       4.41825948      -0.99608739      -0.99637053      -0.85166258
H        2.02910061       7.30336544       7.34594175      -0.48794660       0.56029063       0.68867227
H        8.11028082      10.19759783       9.58737962       0.44328603       0.08751907       0.00411106
H        7.45486021       7.37693831      12.16107061      -0.86442528      -1.32766964       0.14933755
H        2.87773179       7.29549852       5.06586730      -0.30015531      -0.01125476      -0.04892447
H        2.07819448       8.05797967      12.38955682      -0.44334256      -0.25864671       0.33821579
H        5.21009466       6.07563543      11.01760248       0.43686750       0.23736191       0.32262332
H        6.96915197       2.66776588      12.07414657       0.31262728      -0.79154386       2.57791938
H        2.07255992       2.37032387       1.43193434      -0.06697926       0.63443454      -0.64348845
H       11.89475918       5.26260141       5.86878139      -0.28674452       0.85950692       0.55950603
H        0.76449768       8.09499033       9.54463177       0.39822849      -0.57707607      -1.01182591
H        5.83473758      11.98815780      10.25375591      -0.42673153       0.41990602       0.21824907
H        3.76581477       2.89733280      12.03902617      -0.05006553       0.53359069      -0.11345134
H        9.54151316      11.95260243       5.72985271       0.11386141      -1.27878237       0.55960747
H        0.95288127       1.03437321       7.72154298       0.78526824      -1.19309141       0.37379514
H       12.02894906       2.98400199       0.44418898      -0.18723608       0.23740136       0.21254468
H        9.26423487       7.21863293       9.56638009      -0.15241247       0.39693473       0.02401260
H       12.32791804      10.34236329      10.28018680      -0.14489805      -0.59603801      -0.59376040
H        5.12326302       3.44156046       2.22929019       0.26270995      -0.44847880      -0.63766046
H        1.17825335      10.97796165       1.02424616      -0.37638660      -0.06718868      -0.14952056
H        5.60100615       0.67367145       6.83182763      -0.34543058       0.56611979       0.53751246
H        7.07658995      10.49142229       3.88153406      -0.18261619      -0.21257856       0.88846315
H        9.88689104       0.54845312      11.96166734       0.66276791      -0.05095994      -1.37899658
H        6.07259490      10.28111752       1.73417672      -1.15237097       0.15840604      -1.84764859
H        0.00115104       6.84199253       4.04697994      -0.43361919       0.09851623      -0.10491656
H       10.15029553      10.93856711       9.42853996       1.56791346      -0.81365836       0.69429099
H        1.22211416       3.40803812       7.73297450       0.29509940       0.12484356      -0.02013986
H       11.27802519       1.95785168       7.69280371       0.88661981      -0.34295871      -0.00052372
H        3.71550923       0.03181786      11.05795204      -0.28670594       0.35272599       0.51024845
H        2.19488009      11.73685055       8.87956192       0.23011223       0.00378165       0.10521100
H        5.00685180       4.90730984       3.90141198      -1.03266691      -0.05906281      -0.41785893
H        9.05196011      11.41699079       0.67875719      -0.44893293       0.09454179       0.30801258
H        4.35382388      11.84339316       8.50207741       0.06965856       0.48577705      -0.30694933
H        8.84249309       7.71284549       5.44131928       0.58551830       0.98642060      -0.20451905
H       12.13121562       4.20692103       9.77675972       1.17273951      -0.43042549       0.44955407
H       11.86339532       1.53555889       2.35170669       0.85679277       2.31317724      -1.61947797
H        6.91832753       5.58373027       9.72732599      -0.30464455       0.35835658      -0.14153914
H        7.18125747       6.38273460       3.16647863       0.30708433      -0.30632049      -0.61184870
H       10.26497252       1.66208107       5.72467863      -0.45618586      -0.38658374      -0.06612389
H        3.68833531       8.41945375       3.17768588      -0.27116588       0.12107124      -0.68085930
H       10.47024713       8.86994035       1.94188434      -0.26079949      -0.20948194      -0.60383884
H        5.63172607       9.71165793       0.31958278       0.57982403      -1.09436188      -0.64465987
H        0.63547858       8.00032606       4.67967279      -0.25561462       0.33687415      -0.00389526
H       11.90653722      11.14817403      11.36983953      -0.05975930       0.85087010       0.89427101
H        4.95262595       1.97796613       1.96748293       0.15815151      -0.40238662      -0.23953698
H       12.09425079      10.54955964       1.25005309       0.75247125       0.48175145      -0.54896439
H        5.61208018       0.92542755       8.39413804      -0.32542110       0.70094992      -1.11861765
H        8.36063685      10.14709582       3.08322764      -0.70855205       0.33034903       0.13125896
H       10.02543798       0.21244178      10.33099689       0.21539258       1.49181310       1.55481286
H        8.74582667       0.45535899       1.32332317       0.57001792      -1.09036879      -0.20241014
H        3.64204593      10.60070380       7.98392373      -0.45265407      -1.09641437      -2.08145284
H        9.49069642      11.37441663       8.09407033      -0.09612424      -0.04635235       0.87618010
H        2.40742803       4.48620106       7.60687346      -0.63775260      -0.89904401      -0.07314977
H       10.40569929       3.12571964       7.94138515       0.11597508       1.61990625       0.54553896
H        2.70005196      11.54938304      11.74750879      -0.16005583      -0.20996649       0.00294209
H        0.70777149      11.90918405       9.35784444      -0.73896418      -0.16387763       1.09733423
H        3.85506650       5.23968782       2.83695192       0.37388633       0.35296456       0.31824376
H        2.32522674       9.13964763       3.72669871      -1.13994229       1.04640400      -1.08407400
H       11.52209944       9.04052298       2.95939173       0.16734313       0.62051184      -0.13637323
H       10.13351565       8.03663172       4.64504046      -0.63090998       0.79952322       0.61377898
H       11.41573659       5.15081866       8.77487170       0.14074777      -0.09510704       0.12448470
H       11.12765774       0.22464458       2.30333311       0.48267527       0.69399632       0.70753976
H        8.22471678       5.11629724      10.26852603       0.33825964      -0.13512356      -0.36311120
H        8.25469518       5.28882531       2.94206151       0.22852206      -0.19181805       0.28352511
H       10.27253013       0.98099785       4.31385812       0.59937429       0.15424592      -0.55892063
H       11.07218639       3.75356456       1.44240529      -1.03783005       0.29529383      -0.18109494
H       10.48319929       7.88112409      10.15964743       1.76349934      -0.15180102       1.48401192
H        0.18058193       4.14410564       5.25210298      -0.47069284       0.40533000      -0.89158508
H        0.24497218       7.82437166      10.95724951       0.04880622      -1.36449334       1.41306831
H        5.77161778       1.02986255      10.71384743       0.58858112       0.96860814       0.40953713
H        3.18358290       4.25141047      11.44971641       0.15814820       0.26061391      -0.61481591
H        9.47520304      10.27768393       5.77906231      -0.14510780      -1.40460641      -1.21142304
H        0.69039109       1.72338641       6.21286898       0.37752897      -0.26577950       1.80027744
O        4.00396577       6.96859725       1.86727912       0.34937194      -0.42667154      -0.47608360
O        6.04873623       1.05232435       4.50485590       0.55942560       1.50627611       0.85169865
O        5.59503118       8.18816464       8.66589184      -0.04925563       3.09589809      -0.84607810
O        3.87911395       9.88476255       6.30882321      -0.69027322      -0.79948312       0.18477393
O        9.89224967       7.35867017       1.18802828      -0.48400959       0.36643345       0.15726230
O        6.29403664       3.74967521       5.28910143       0.74648313       0.24419532      -0.42544279
O        4.34985427       3.93510957       7.50554578      -0.07305928       1.25007543       0.17682140
O        7.75993230       1.23581721       8.92737064      -1.58842708      -0.70063581       1.01163479
O        2.90254431       9.41608657      11.14086469       0.53556770       0.33317453      -0.12350789
O        2.35488375       5.77626068      10.33255030      -0.86475419      -0.07635435      -1.57476784
O        0.85464034      10.63407305       3.83720976      -1.08704824       1.37937950      -1.64152944
O        9.43989207       3.57635760      11.19127282      -1.22439646      -0.97247727       1.55331669
O        0.29826728       2.48953008      11.18712770       0.36240044      -1.73186512      -0.56727421
O        7.82921053       6.71661988       6.98911444       0.70867778       1.55118750      -3.66982723
O       11.61831562       6.06329913      11.97826177      -0.14480269      -0.69267734       0.06757210
O        5.98488700       6.95984811       4.64008104       0.82281818       0.71909601       2.30944985
O       11.46392232       6.64046788       7.65824631      -0.87386778      -0.04132435      -0.04746254
O        3.61954565       0.05791570       3.38815028       2.30032909       1.28505250       0.62256013
O        6.22444700       5.58386675       0.15431982       0.64772770      -0.79674302       0.65803955
O        6.27087088      11.06820354       5.74991946       1.60997173      -0.28756426       1.11752472
O        1.15520185       1.96151586       4.63906625      -0.22060498      -0.52781560      -0.55402740
O        8.03998357       2.00981622       2.50300243       0.34075027       0.37474644       0.65637472
O        0.12377558      10.62996480       6.51605480       1.66762560       0.49806858       0.36463953
O        9.35003441       4.39750429       4.03916593       0.33552431       0.23237015       0.19703369
O        1.49017946       8.03233451       7.79425531       0.67602998      -0.63787481      -1.27950347
O        7.19783699       9.99719773       9.85013643      -1.43950033      -0.22282934       1.11112229
O        7.67173730       8.26149295      11.89488224       0.32067348       0.99333661       0.03916498
O        2.27636852       6.75559524       5.63098422       0.22665394       0.53997194      -0.02611758
O        1.56656663       7.32610695       0.40056411       1.26439527      -1.21726849      -1.88521178
O        5.08427210       5.96644688      10.06355713      -0.33979080      -0.07130603      -0.70196140
O        6.65348131       2.96262380      11.25221517       1.06909225       0.03878307      -2.86097718
O        2.19629896       1.45063744       1.65266331       0.08309949      -1.15927016       0.33023389
O       11.92459052       3.34676755       1.36608977       1.32730227      -0.59558818      -0.27040730
O        9.85341972       8.00279564       9.48578021      -1.94038357      -0.12865500      -1.53478137
O       12.02049993       4.90122571       4.98223201       0.58406391      -1.08443002       0.42952939
O        0.28008979       8.46590658      10.27574260      -0.50116900       1.86514601      -0.45382827
O        5.22562305       0.33499342      10.35162980       0.47257800      -1.32894095      -0.61635307
O        2.99853151       3.50062497      12.01373419      -0.24704584      -1.06499039       0.80675715
O        9.50403986      11.07266405       6.28388417      -0.01857562       2.73614970       0.97137423
O        0.55913483       1.75893047       7.24260083      -0.93609053       1.75325821      -2.07813115
O        5.40130542      10.37400865       0.95125424       0.70624827       0.94562319       2.46918163
O       12.27002170       7.80543704       4.15348113       0.36484965      -0.74981116       0.09504265
O       11.81608659      11.16321844      10.40749011       0.47837239      -0.71335814      -0.24736069
O        5.50774259       2.70779052       1.65117212      -0.66559395       1.04796141       0.81043681
O        0.27246490      11.17932331       0.72135678      -0.62978122      -0.74617167       0.77616286
O        5.12252902       1.16370380       7.54610718       0.56340603      -0.97042358       0.42873885
O        7.51041356      10.65239970       3.04483210       1.00356014      -0.29747821      -0.98173451
O       10.24866239       0.89245799      11.06693379      -0.84791287      -0.82824789      -0.22173217
O        9.44662399      12.25772138       0.94926966      -0.44513118       1.07980802       0.57160014
O        3.87440065      11.05260104       8.76997739       0.10029687       0.38449961       2.27426305
O        9.40246792      11.41454458       9.10364177      -1.18829636       0.36947055      -1.92609989
O        1.43673786       4.37432687       7.77479706       0.51361115       0.71353850      -0.14083763
O       10.34736633       2.19571559       7.81909219      -1.12693144      -1.45604735      -0.75457669
O        2.88085277       0.06040371      11.60249650      -0.03212368      -0.07001592      -0.13570765
O        1.31148136      12.08150599       8.63989028       0.44228201       0.24189229      -1.15582660
O        4.14897212       4.58917572       3.50733319       0.61687843      -0.37037660       0.15467135
O        3.10230953       8.63815480       3.91431115       1.42348442      -0.79070918       1.52242327
O       10.98894393       9.59660384       2.33377085       0.24341993      -0.18108548       0.55654720
O        9.35154315       8.49258042       5.07445008       0.19045163      -1.70970335      -0.37397317
O       11.31343245       4.32638473       9.31441157      -1.21876391       0.83808788      -0.65051430
O       11.57823675       0.86755443       2.92852705      -1.54841563      -3.12189510       0.83637585
O        7.87440330       5.66344667       9.53477810       0.10764173      -0.46938549       0.63559061
O        7.66071618       5.88608150       2.43991458      -0.59713445       0.68458659       0.67615278
O        9.75787330       1.06008385       5.12825534      -0.32432657       0.24966742       0.57408769
192
Lattice="12.429 0.0 0.0 0.0 12.429 0.0 0.0 0.0 12.429" Properties=species:S:1:pos:R:3:forces:R:3 energy=-940.1364522254656 pbc="T T T"
H        3.96821116      11.12695651       0.16323553      -1.17315986      -0.02195551      -2.21178576
H        4.61432829       2.29300885      11.55497853      -0.39973043      -0.00985556      -0.03724028
H        1.25540373       0.48254535       3.25191452       0.10310318      -1.78351406      -1.68448276
H       10.18961253       8.49689480       0.74929719      -0.28929943      -0.17251130      -0.01254274
H        2.14638754      10.71287259       5.06091339       0.05975519       0.03588975      -0.05520216
H        8.62392540       5.52048007       6.83375958       0.93580786       0.00335456      -1.54549118
H       10.98484283      10.96754386       9.92018905       1.19336413       1.31580634      -0.11034844
H       10.99485145       2.33777264       2.98164777      -0.43137850       0.34316581      -0.14783627
H        3.61857688       4.87246509       4.64343121      -0.26331011       0.09260643      -0.01946803
H        0.64622407      10.32290766       1.63967030      -0.21801492      -0.59005155       0.01141212
H        0.89548612       8.63429890       8.09807089      -0.73219035       0.17997002      -0.03530220
H        8.70759762       9.70417110       2.52116468       0.31475042       0.35710765       0.44675690
H        8.23886997       5.03673129      12.34570595      -0.15521628      -0.02219103       0.60885742
H        6.56385748       5.32001431       1.51942414      -0.46939752       0.38788604       0.72989991
H        1.88225914       5.42792438      12.16718057      -0.71422129      -0.59291681       0.72705123
H        3.90407668      10.29163123       6.09935171      -0.27850871       0.52813672       1.29612472
H        8.15838025       2.26364864      10.51493155      -0.63009981      -0.17315573       0.44055285
H        8.46990040       4.31668981       8.71053996       0.73763040      -1.40691478      -0.05333607
H        1.35852589       0.84527376      11.14564874       0.35320467       0.63281084       0.03136525
H        9.03817271       1.83792927       8.65273937       0.66148758       0.98853443       0.07774664
H        1.70833229       7.67697961       3.78777875      -0.52034496       0.27179044      -0.51974138
H        6.70867993       0.03954276       1.48251097       0.49679652      -0.00630953       0.17759532
H        5.07397178       6.72102869       1.44438310      -0.93839501       0.83399088      -0.02812457
H        1.82019716       0.96906965       5.25002163       0.06547860      -0.62881215       0.03471749
H       11.37996800       8.13750431       7.00079189      -0.01248605      -0.40485834      -0.24947692
H        1.67994157      12.22095066       0.80425609      -0.10920371       0.06520817       0.18941330
H        0.79717490       3.49904351      12.09610208       0.22259932      -0.52919150      -0.71027986
H        7.55999527      11.57758393      11.46438511      -0.43466076       0.16400974       0.92868077
H        1.68914427       8.01903833      11.70353344       0.13558887      -1.04697732      -0.05820911
H        0.73623358       1.09171108       7.46869254      -0.30290280       0.36869294      -0.09668803
H        6.40490219       3.00437628       4.90951739      -0.39004887       0.14756846      -0.13729839
H        7.15335221      11.53728776       9.04614060       0.35809235      -0.21161077      -1.02639355
H        2.80820776      11.35603830      11.44619446      -0.48843261       0.97874186       0.37516619
H        4.53468377       1.54682899      10.19801920       0.11832207      -0.42595314      -0.46818943
H        0.34185107       1.52315180       3.89036868      -1.54124835       0.17954862      -0.00852302
H       10.95120618       7.14081667       0.50259617      -0.38637405       1.22903136      -0.52104159
H        1.06419002       9.62802637       4.90737404      -0.02912405       0.06451931      -0.16396011
H        9.38215073       4.64073440       5.78788835       0.44205254      -1.15795213      -0.06901095
H       11.18014035      12.36086757      10.57398070      -0.40130828       0.36039947       0.35766767
H       10.44042516       1.86243082       4.32909692       0.07251222       0.39768312       0.46370860
H        2.07849951       4.86079455       4.92480145      -1.06357667      -0.36847766       1.13347841
H        0.05972128       9.08854018       0.78329461       0.07731413       0.90631590       1.09406953
H        1.55588645       8.94109619       9.49233457      -0.18263250      -0.31771512      -0.11736656
H        8.24476738       8.27448778       2.36184993       0.62751395       0.65741040      -0.56243001
H        7.67275983       3.65030814      12.25562408      -0.33147437      -1.38798770      -0.46040992
H        6.81693756       6.36062843       2.63626039       0.30225873       0.17721098       0.23941298
H        2.92527720       6.54159096       0.21287088       0.51560552      -0.07639830       0.67089983
H        3.98545856       9.11532712       5.14562683       0.14467477      -0.83690432      -0.63342071
H        6.65695025       2.14076425      11.11092516       1.12500939      -0.27000573      -0.23799267
H        8.12633858       5.70170723       9.08579875      -0.21440254       0.59242157       0.00560433
H        0.70025849      11.96741550      11.03661950      -1.46670162      -1.14799431      -0.84608953
H       10.21915907       2.73230774       9.41595059      -1.37103849      -0.26092567      -0.45864251
H        0.57444575       8.32032920       2.87621736       0.10906652       0.88032425      -0.72072430
H        7.50984146      11.10833998       1.53474533       0.06287581       0.32446806       0.16408309
H        4.75204527       8.10362629       0.74763060      -0.21854090      -0.58669721       0.25835066
H        2.71702784       1.48584381       6.39666033       0.00160723      -0.22224991       0.22420082
H       11.43960247       9.66668044       7.14407325       0.06830896       0.13975655       0.07011956
H        2.77858149      11.83176760       1.88541181      -0.88393116      -0.03955064       0.08614101
H        1.71151293       3.71678077       0.96064283       0.79119813      -0.78007839       0.69737771
H        8.47525338      10.51619392      10.80193705      -0.22338260       0.39578748      -0.23803531
H        1.85516634       9.50684072      11.73108313       0.25028125       0.29056566       0.02651298
H       12.28986679       0.63156472       8.58874608      -0.72155055      -1.39358970       1.10924044
H        6.56942830       1.41380746       4.84658475      -0.45680862       0.09917917       0.43868440
H        6.29299920      12.13114270       7.94756195      -0.00551605      -0.22742203      -0.10707634
H        4.99543813      11.71760301      10.33849330      -0.40703164       0.09070225      -0.15095474
H        6.70540961       4.04624871       7.80252563      -0.37865871      -0.08690521       0.28837463
H       10.87177767      11.01836258       2.32458359      -0.91548077       0.95022941       0.19873946
H        7.11461957       9.08287064       0.29236827      -1.07926577       0.16550013      -0.09275049
H        0.96682318       2.51569373       9.49320931      -0.48792221      -0.39672064      -1.68772127
H        4.77199719       6.61211153       7.45151567       1.15904951       0.04933462      -0.63285357
H        9.38145872      10.34921451       5.10200662       0.24357175       0.08564523       0.02171043
H        5.77211304       4.74903615       3.93214022      -0.61029717       0.48931453       1.21847649
H        8.36084609       6.51987953       4.36044097       0.11411301      -0.04505818       0.18934009
H        0.15550299       5.29412823       5.82766319       0.09808090       0.23579506       0.48265497
H        9.23621521       1.03436665      12.06867706       0.76043343      -0.40723121       0.39472369
H        8.63564408       1.00639358       6.21831632      -0.21561303       0.23102744       0.16332324
H       10.43347146      11.98425397       6.44500372       0.66194321      -0.52438285      -0.32929565
H        5.98404572       7.86120426      10.58370430      -0.46276954       1.07927004       0.62654895
H       11.48074149       7.53072744       4.86270744       0.46151123      -0.24768106       0.28210038
H        0.08910298       5.35221159       1.32880313       0.43930771      -0.18823783       0.11425424
H        6.68036321       8.31629655       6.45722486       0.98144357       0.41358514       0.76941194
H       10.75872734       9.03692855       9.31945880      -0.40105907       0.17410389       0.05840089
H        2.52602418      10.42720398       7.87045509       0.03851098       0.01682417       0.00000194
H        7.05601518      11.34649503       4.85053797       1.04196567      -0.13473033      -0.25108510
H        5.23036571      11.34822842       2.83314612      -0.39195584      -0.22065773       0.32045553
H        9.27391254       6.89576633      11.62568504       0.47711668      -0.15632403       0.21578702
H        7.49821440       1.72419630       3.35457790      -0.26356907       0.44708319      -0.90632165
H        3.40630654       6.85694731       4.07292916      -0.07865249      -0.37463852       0.17860058
H        3.56790815       5.84186501       8.69254076       0.52884170      -0.77147441       1.49383175
H        9.38693239       4.06183834       1.74379396       0.22377247       0.24439393       0.55427801
H       10.62529844       2.27570751       7.02631500      -0.27372571       0.97271691      -1.28576435
H        2.23956188       2.63559718       2.78132813      -0.70351848      -1.23813233       0.73376541
H       10.91563919       3.38674868      11.53430723       0.62653338      -0.22800180      -0.07877563
H        5.42215053       2.09282513       1.26560531      -0.97147611      -0.33821515      -0.11682330
H        4.62070267       4.20516519      10.28060456      -0.11881810       0.81527856      -0.08288676
H        4.08087137       3.43728757       7.89374490      -1.62324757       0.11077058      -0.63637108
H       10.46191522       6.60696983       5.53876446      -1.13435817      -0.66264974       0.34497144
H       12.29158119       6.28661397       2.64046755       0.62080807       0.16409711       0.00788672
H        8.92799661       5.94430337       3.10388180       1.16553319      -1.74905912      -0.74027877
H        1.14238801       4.64014262       6.93105015      -0.98928033       0.27864610      -1.44672032
H       10.12944056       0.34753742       0.77243777      -0.11167792       0.15224901      -0.70251845
H        8.28591918       0.06245985       7.44727949       0.39427204       0.22622167      -0.44213294
H       11.81908546      11.56202500       5.69862237       0.10376214       0.13620239       0.04006957
H        5.58763237       6.35687547      10.29044366       0.91052725       0.96647458       0.02407927
H        8.01331054       2.39455259       2.02758239      -1.11384553      -0.78848924       0.41107371
H        3.94391600       7.68650768       2.89719966      -0.03748280       0.22116017      -0.62332037
H        7.35668448       9.33376940       7.46503913      -0.25957343       0.41577399       0.11496109
H       10.55873415       8.89087573      10.83039514       0.48849025      -0.70017383       1.25507756
H        2.68465065      11.75336418       7.00803222      -0.45027465       0.65249531      -0.23613431
H        5.59619585      11.19679019       5.09712909       0.82398851       1.43881733      -0.88844768
H        3.97213127      10.64142116       3.50759686       0.62612412       0.15684052      -0.09394635
H        7.82966401       6.70278715      11.18779848       0.04607558      -0.73001499      -0.44534940
H        3.61565558       5.18982034      10.98607161       0.61009055       0.68781482      -0.48629429
H        2.62479763       4.15054804       7.76452006       1.03913430      -0.48990085       0.03644923
H        2.79228779       7.07885865       8.31578334      -0.81875024       1.28721717       0.37229522
H       10.66418651       4.78647392       2.22261520       0.82227548       0.60949469      -0.19939047
H       11.49144562       3.26510312       6.28978526       0.74511554       0.45115518      -0.22134477
H        2.67953354       4.07169851       3.01860706       0.13556978       0.66784522       0.45763430
H       10.09534188       4.33047118      10.80644144       0.73140214       0.43925116      -0.42197050
H        3.91736233       2.51406769       1.43382080       0.47190359      -0.46861215      -0.22931293
H        8.14631709       9.42913609       5.47014975       0.74767750       0.72302103      -0.77277996
H        5.63483457       5.37280161       5.45100414      -0.00111663      -0.60172988      -0.53775876
H        4.27010068      11.70846019       8.94256819       0.15190429       0.67785202       0.54796427
H        6.12312692       2.87209545       7.03303716       0.12622284      -0.20594238       0.01215330
H       10.29039654      12.36870124       2.95684032       0.67617476       0.76652929       0.77010759
H        5.72308087       9.83614995       0.35095237       1.08496273      -0.60313550      -0.58684523
H        2.38900021       2.64278852      10.17519339       0.36275990      -0.00712871      -0.50799610
H        6.31784809       6.73573436       7.75709951       1.12310783       0.12933338       1.62147748
O        3.68935729      11.00439455      11.60715590       1.91867479      -1.16583488       2.41408043
O        4.59181221       2.44839022      10.57399093       0.05661733       0.20585849       0.79980367
O        1.23191011       1.18901487       3.86626779       1.32842232       1.93924133       1.10035822
O       10.51196844       7.92185808       0.02113713       0.73438497      -1.24297553       0.82320145
O        1.18786839      10.58803852       5.02772313      -0.20595880      -0.15040427       0.00918654
O        9.05925789       5.53093852       5.88627597      -1.38182236       1.12302540       1.32607063
O       11.57193482      11.83786430       9.85886367      -0.86035950      -1.59767542       0.23557713
O       10.98201649       1.57329806       3.57973695       0.09597600      -0.23084897      -0.08824588
O        2.73273629       5.20183099       4.32137683       1.58238500       0.12528346      -1.07085819
O        0.02518645       9.54213702       1.68681427       0.20121482      -0.00616087      -1.14761590
O        1.75002142       8.70789977       8.55882625       1.16572622       0.17994527       0.24217485
O        8.57067560       9.05227411       1.81781122      -0.61934808      -0.89500133       0.20920794
O        7.85831950       4.29995913       0.50525134       0.45711427       1.26956858       0.42574934
O        6.07236931       5.90237867       2.19151641       0.92033543      -1.58322014      -0.87208987
O        2.38884060       6.20162498      11.90892112       0.27020116       0.83782556      -1.15786290
O        4.34377135       9.99795085       5.29787048       0.10850053       0.14776148      -0.29617064
O        7.62508961       2.00773632      11.32980509      -0.65500513       0.56535014      -0.48831646
O        8.08461848       5.10398485       8.32203512      -0.25682503       1.02099747       0.34955322
O        1.35664240      12.39703053      11.56721648       0.81347243       0.65350274       0.38475573
O        9.24487401       2.68806972       9.15067348       0.58624580      -0.79446913       0.17837182
O        0.72499702       7.76955889       3.65185210       0.25150736      -0.88895700       1.14091982
O        6.76950547      11.56928711       1.11146735      -0.31979317       0.02089522      -0.42461646
O        4.29180127       7.37274842       1.23358488       0.58189042       0.01546483      -0.53300118
O        2.25139877       0.67177010       6.11238410       0.13193171       1.01163921       0.38809061
O       11.66384666       8.83705504       7.62430175      -0.25981691       0.44375978       0.21941524
O        1.79064761      11.94606072       1.74558016       0.85972498      -0.28879729       0.09287242
O        0.96578991       4.03051007       0.44500290      -1.09004742       1.25389366      -0.10108294
O        7.96964842      11.34013086      10.63521835       0.58423006      -0.50010309      -0.75191238
O        1.23573137       8.82522340      11.43377446      -0.32586696       0.73997746      -0.05689889
O       12.39136278       1.37713836       8.01525461       0.99312181       1.08845295      -1.08053763
O        7.00242542       2.26151618       5.09000468       0.61987301      -0.72002717       0.31894284
O        7.08250943      11.56088571       8.02905790      -0.17722701       0.15096534       1.21847792
O        8.57488254       9.97724543       4.70972270      -0.77382134      -0.43652815       0.41303961
O        5.35736009       4.62398830       4.84394315       0.71347496       0.29403724      -0.61957165
O        4.79728253      12.28899189       9.56998405       0.04263529      -0.28492810      -0.77120428
O        6.13660887       3.25317154       7.92772568      -0.25161798       0.04157406      -0.29400858
O       10.08903454      11.64620235       2.36954601       0.27424638      -1.88874438      -1.27562640
O        6.20876669       9.10684653      12.29863551       0.05489837       0.46993335       0.73760674
O        1.43183535       2.66998616      10.29916540       0.25040558       0.17296204       2.25394093
O        5.71970972       6.61452500       7.04966015      -2.28849600      -0.21075078      -1.52688423
O       11.33936274       6.97903772       5.66188005       0.88152501       0.54904064      -0.43339220
O       11.89686057       5.90570402       1.83625828      -0.92367045       0.25559034      -0.39488685
O        8.43781395       6.68879977       3.39982335      -1.29976963       1.57783145       0.57690183
O        0.73379066       4.52276741       6.02377041       0.27937589      -0.19559024       0.93407257
O       10.17335700       0.81828084      12.32200249      -0.52335045       0.21022639       0.19164785
O        9.01234147       0.65969461       7.04212880      -0.11760101      -0.47871979       0.41084167
O       10.97450711      11.23695585       6.04439065      -0.84196952       0.19733950       0.45319392
O        6.32750080       7.06902339      10.19150106      -0.33103001      -1.94179468      -0.54758665
O        7.26547409       1.83549451       2.39034933       1.26235283       0.47861835      -0.14655152
O        3.53333664       7.77537604       3.78204938      -0.11792706       0.33657248       0.82802631
O        7.56163679       8.69722351       6.76737157      -0.93730108      -0.92676814      -0.59426178
O       10.26141468       9.41255260      10.09501385      -0.09738533       0.54488757      -1.61415888
O        3.15230003      11.13269807       7.59148935       0.47527543      -1.06461220       0.49043500
O        6.26277423      11.88169542       4.70564571      -1.41588345      -1.09079750       0.86744606
O        4.35151579      10.95323744       2.66039937      -0.44365416       0.06809386      -0.74277547
O        8.67147810       6.17493721      11.32785655      -0.52098539       0.89086267      -0.28408129
O        4.38138483       5.18279862      10.33929749      -0.34418825      -1.38568736       0.17183729
O        3.12319268       3.33301406       7.53628180       1.12229643       0.11518574       0.63332133
O        3.22706730       6.31454250       7.94209786      -0.07888165      -0.46280524      -1.48134624
O        9.94224101       4.23170366       2.55229380      -1.25706864      -0.90825243      -0.30886210
O       10.58270111       2.95581142       6.27626584      -0.43826016      -1.38493696       1.07987201
O        2.70718130       3.34846342       2.36169435       0.53304544       0.36922718      -1.11080239
O       11.03031150       4.00414143      10.78209907      -1.32228169      -0.17978370       0.72231342
O        4.50495267       1.87227169       0.93417818       0.86876944       0.78486543       0.31506558
192
Lattice="12.429 0.0 0.0 0.0 12.429 0.0 0.0 0.0 12.429" Properties=species:S:1:pos:R:3:forces:R:3 energy=-934.7746518862499 pbc="T T T"
H        5.87139978       0.94124925       2.11899134       0.22082928       1.42624528      -0.43390254
H       10.55802062       7.29325466       0.16897954      -0.62387800      -0.57979517       1.07482291
H        0.60178203      12.00434513       3.97532927       0.19935644      -0.58064358       1.18495321
H        0.65194858       7.51524293       2.05050101      -1.41005203      -1.71995948       0.26584002
H        5.87708342      10.73651155       7.87046992       0.12671766      -0.51539710      -0.01553229
H        8.40710255       5.25061302       5.38982944      -0.47622736      -1.25902469      -0.15747657
H       10.86369535      10.80888271       0.60137535       0.36371057      -0.06282232       0.63261104
H        9.79475951       3.35276489       2.50741014       0.30839067       0.20460827       0.08106127
H        9.52258885       5.37203157       1.19923600       0.22737904       0.69209617       0.34294908
H       11.64005289       5.55930335       8.01261825      -0.49122616      -0.32669759       0.46398360
H        3.13471143       8.34780154       6.73516632      -0.80884359      -1.53844175      -0.90631382
H        7.22197367       9.41847156       8.76276731       0.06109653      -0.23531243       0.12335955
H       10.85531720       7.55155500       2.54114868       1.50765021      -1.24034787      -0.55103284
H        9.51555653       7.17976695       6.09532344       0.12566094      -0.01284581      -0.63536132
H        4.70530044       8.20759692       2.53910243       1.05199936      -1.17706025       0.15524780
H        9.95153845       8.71616951       8.36193601      -0.19000283       0.75311088      -0.58757692
H        0.10464800       0.24585194      10.69257483      -0.80755967       0.49644618       0.32617806
H        2.50473248       3.21163472      10.66835287      -0.67212003       0.71982844       0.57679631
H        3.00632265       0.66518075       9.88690716      -0.74015502      -0.01919725       0.99203294
H        2.28997624       2.71263331       4.01193090      -0.05183053      -0.44736231      -0.88838716
H        1.32344998       0.27154146       0.34843520      -1.10605194       1.22103658      -1.25710483
H        7.65538452      12.29920406       4.81514482       0.44088780      -0.28132957      -0.18849301
H        7.48412728       6.56674849       7.58981183       0.45713760      -0.03613006      -0.07677549
H       10.04459075      12.31519619       4.01126108       0.30300160      -0.73946437       0.29436255
H        1.04129537       8.00015040       8.00466838      -0.24791720       0.39889358       0.05036848
H        3.75928105      10.80095562       3.96083234      -0.48741703       0.94262617       0.07614539
H        7.01700971       6.13401779       3.75065755       0.39300248      -0.01700796       0.50763568
H        7.15666147      10.93826259       2.67526401      -1.65667706       0.89025789      -0.63309965
H        1.63602553      11.76557714       8.72691186      -0.34951651      -0.48229656       0.55337401
H        3.31541018       0.87357155       7.84165911      -0.19835062      -0.40864107       0.02909284
H        9.92424436       1.26520138       5.76292947      -0.47951474       0.87882447       0.00248755
H        1.68322283      11.59096783       6.50009099       0.11540451       0.03374117       0.15781184
H        4.82369222      12.33353912       2.56496577       0.27807643      -0.06794935       0.02640783
H       11.56498389       8.46006123      12.14602709      -0.38739197      -0.38313309       0.27034762
H       12.20234851      11.54756594       2.69780033      -0.19532440      -0.45613071       0.04763536
H        0.36482595       5.95490315       2.38723202       0.44269361      -0.50902023       0.79842536
H        5.86049628      11.70595327       6.66677259       0.12346988       0.05010768       1.02783732
H        7.44693806       3.91338963       5.62197928      -1.46591326      -0.42299135       1.17907833
H       11.09786091       9.65003658       1.56178172      -0.20007290      -0.42327928       0.67265466
H        9.01702432       4.21436533       3.46656363      -0.04753033       0.12381677       0.42602670
H        8.43508293       6.22653547       0.55298534      -0.05051289       0.12650047      -0.08584598
H        0.70391716       5.52132453       7.47648090      -0.93027023       0.07135053       0.00248504
H        2.75016750       6.72662479       6.30616722      -0.03606227       2.06522612       0.42657372
H        6.47378276       8.24944222       7.99364889      -0.54816265       1.69941146       1.11352408
H        9.41622688       7.95331373       2.24431353       0.00467036      -0.31090862       0.17958206
H        9.66269212       7.15038609       4.47119971      -0.37229552       0.28472937       0.50677516
H        4.02570693       9.13807129       1.60170755      -0.28317625       0.59676370      -0.11268523
H       10.08721615       7.37702351       8.98693795      -0.44790208      -0.40530905      -1.33665201
H       11.30799140       0.79602978       9.93154813      -0.12620721       0.11170197       0.87353750
H        1.30902648       2.41879766      10.35920224      -0.24264358       1.82973013       0.99486056
H        3.12150572       0.61361561      11.39054591       1.60450488      -0.89188472       1.99015707
H        1.10993260       3.58220013       4.61583835       0.87508414       0.07797652      -0.14560832
H        1.60609323      12.19842510       1.69022263      -0.02690079      -0.42603802       0.46549338
H        6.37256250       0.23526939       4.05179044      -1.48960508      -0.71448075      -3.07603699
H        6.26183342       5.93473736       8.27241018       0.16828033       0.82491365      -0.68596850
H       10.96297237       0.78081371       3.19534568       1.22133135      -0.03190444      -0.05819514
H       12.04304668       7.83215259       8.36547113      -2.34116653      -1.92877776      -0.32014985
H        2.60763953      11.80791171       4.40131220       0.72860548      -0.47443450      -0.34814782
H        6.31033094       6.55058036       2.52135603      -0.02424322       0.22667133      -0.99103117
H        8.62528295      11.20202562       2.88843212       0.49793241       0.31060934      -0.11294468
H        1.35846735      10.29928788       9.15085084      -0.88927018       1.36198692       0.08619364
H        4.35228227      12.19092322       8.03889745      -0.66228946      -0.45218329       0.30551303
H        9.09575986       2.66237096       5.91674532       0.40092451      -0.54330341      -0.15140359
H        0.50446517      10.84787999       5.85138400      -1.05638772      -1.14781328       0.23122774
H        4.69479067       3.79657098      11.95346121      -0.00567121       0.17013720      -0.34278597
H        8.81692041       1.88928468       0.48652916       0.76011355       0.33678510       0.34698655
H       10.52268062      10.27748404       5.06256202       1.15347152      -2.76260082      -0.30381113
H        5.59258442       9.20130997       5.70242264       0.24217673       0.20612212      -0.29377412
H        3.13448684       4.71480270       1.87098206       0.02456099       0.95401739       0.34603639
H        5.63711129       2.80125165       9.81495303      -0.53884576       0.48259032       0.06720810
H        4.51065409       5.52251394       5.37544501       0.38355154       0.32410584      -0.04664488
H        6.40418032      12.20258940      11.32209036       0.87754960       0.71355858      -0.71023979
H        7.77065723       9.80950985       4.50028201      -0.63002918      -0.27666749       1.22400248
H        4.42427540       7.11540377      10.63025725      -0.77387216       0.10338956       0.77329072
H        9.39320007      11.93237749       0.05982921      -0.04089027      -0.62395029      -1.13299754
H        0.22366277       8.48300533       5.37064347       0.40969106      -0.38591576       0.04123236
H        9.57237049       4.78711892       9.33904427      -0.05758324       0.06987141       0.03792904
H        8.14090453       3.13654318      10.02082920      -0.14108517      -0.54977470       0.15284180
H        1.86805929       7.80841248      10.69575089      -0.48645647      -0.70564163       2.70470580
H       12.15870340       4.98820753       5.38077475      -0.60131095       0.36274927       0.88479596
H       10.03928486      11.45103818       8.42382851      -0.63953650       1.15804197       0.46770776
H        8.66133015       9.66250355      11.03802247      -0.34096703       0.01187415      -0.06888052
H        2.85957743       2.61725185       6.34171072       0.50871867      -0.03087685      -0.28657683
H        4.89892999      10.55110856      11.76519508       0.42471585       1.20327076      -2.21212283
H        4.21916531       8.75101845       9.07257790       1.20325886       0.81771965      -0.36053072
H        7.18963201       8.94099034       0.23004146      -0.48934620       0.10434646      -0.09787249
H        9.55144717       1.25507065       7.99180617      -0.08812277      -0.42472156       1.61317984
H        6.57319372       2.38231848       7.32101867      -0.48656940       0.67556747      -1.38968406
H        1.25413055       9.70590139       2.03291922       1.06029022      -0.52742628       0.48767454
H        0.76637434       4.34794717      11.94390470      -1.54835828       0.33027860       1.94050380
H        2.08045453       4.52394443       9.13628148       0.64288303       0.47304574      -0.97957028
H        5.92816545       3.99401072       3.24143696      -1.17088609      -0.56478534       0.21430082
H        2.53667440      10.64791050      12.25614512       0.67870715      -1.11058366       0.62903915
H        3.11589458       1.30530397       2.12868756       0.17414031       0.09118648       0.08243014
H       11.29088275       3.54504129      12.23289756       0.50873704       0.90963473       0.47918272
H        6.08785515       6.00434951      11.86481348       1.76151991      -0.75682317       1.50397632
H        0.67290652       7.26985109      11.58397969       0.69270907       0.14490123       0.39559654
H       11.39986738       4.71549060       4.01378938      -0.54025080      -0.17298626       0.05824107
H        8.03970488       8.61147515       5.37280620       0.22776739      -0.62488440       0.24351016
H        3.73381631       6.93221521      12.07785417      -0.65443384       0.03315440      -0.09379406
H        9.94235715      11.26599008      11.06180268      -0.46205277       0.49312657       1.89419508
H       11.93861325       8.93304214       6.64946452       0.22761085      -0.46165617       2.40442022
H       10.70224111       5.41079353      10.04161715       0.37323044       0.17778844       0.39642478
H        9.40259964       3.42395276      11.12569917      -0.41807170      -0.27440539      -0.68809589
H        8.80917143       0.88566076       9.41831992       0.84594391       0.00053405      -0.64565657
H        6.57117064       1.70563336       5.89228026       0.10934241       0.96959558       0.19905034
H       11.33055848      10.70595785       8.40904212       1.17119372      -0.05374459       0.22782264
H        9.42244006       8.41649345      10.90324801       0.96956397      -0.85155011       0.26877246
H        4.40498584       2.41481263       6.75171786       1.36340156       0.14122477      -0.95014658
H        5.59207493      10.54356925      10.27354654      -0.76712648       0.54080022       1.08375763
H        3.21571637       7.66333327       8.66375144       0.12008662       0.94171446       0.96407320
H        5.72017203       8.79408099      12.20671467      -0.05402755      -0.61204885      -0.28492874
H       10.93975650       2.13414893      11.72953658       0.30732179      -0.38796189      -0.27667226
H        7.40731554       5.24099869      11.54203805       1.13885179      -1.04252513      -1.45932170
H        2.35844935       8.70314533       2.79648663       1.66131207       0.68495161      -0.20057103
H        0.19442199       5.47394285       0.50912051      -0.01648183       1.95583706       0.50434238
H        3.05411655       4.35708055       7.90549059      -0.10966787      -0.29317446       0.04781507
H        5.60625573       3.00235812       4.38473151      -0.50057794       0.15570807      -0.76448643
H        2.37881476       9.04521711      12.41051461       1.13912271       1.30091053      -0.21328434
H        3.84719997       2.67062025       2.60250684      -0.54637326      -0.90587110      -0.54492707
H        3.34734057       4.57438612       5.12246412      -0.48161280       0.86384701      -0.21169122
H        7.54139404       0.77824554      11.81162962       0.06522887       0.00766479       0.66637453
H        3.66277244       2.73697656      12.25089827       0.47206078       0.08514253      -0.75773491
H        9.23910481       0.95452651       1.71260794       0.69745393       0.12855579       0.77844933
H        9.61436195      11.15492839       5.85065025       0.72482009      -0.07539712      -0.47894023
H        4.49274630       8.83972635       4.69857961      -0.03390008      -0.17989289      -0.20658664
H        3.51435255       5.89849877       2.81978413       0.26218848      -0.22491574       1.17436327
H        6.47995895       1.61609246       9.71940586       0.40442638      -0.78939132       0.22443510
O        5.77095595       0.02612126       2.32405978      -0.65335982      -1.37856058       0.32747738
O       11.17220092       7.59310706      11.92628179       0.95124485       1.09160233      -1.85454703
O        0.26418278      12.26736646       3.13064207       0.09544698       1.20028539      -1.44479035
O       12.36258898       6.72058129       2.02005001       1.12090203       2.47019654      -0.75158308
O        5.83641440      11.69052262       7.66667489       0.10129103       0.65786837      -1.42818802
O        8.16274811       4.29211204       5.13692175       2.06579468       1.89544221      -0.99000844
O       11.37538145      10.56142738       1.43342137       0.21042386       0.06817601      -0.74125285
O        9.82872514       4.23588326       2.92610401      -0.10640014      -0.61621324      -0.60633567
O        9.33060997       6.30866818       0.95654155      -0.40697009      -0.65791796      -0.34113017
O       12.18045200       5.68338682       7.22411771       1.62702604      -0.00588376      -0.69704486
O        2.40620385       7.64845266       6.64245777       0.89765987      -0.32911609       0.20375911
O        6.32587589       9.16895740       8.47733344       0.25466974      -1.46140471      -0.69554625
O       10.09663540       7.96111269       2.93444626      -1.22122068       1.54459408       0.91853536
O        9.03323786       7.02215092       5.24600618       0.22856271      -0.40074857       0.41355668
O        4.12183465       8.94672071       2.55491575      -0.49374353       0.62811442       0.09125284
O        9.97648741       7.78804673       8.08375608       0.01249551       0.05237581       1.23200643
O       11.68002941       0.74697823      10.85678380       1.04163023      -0.83270727      -1.22242230
O        1.51376954       3.36826275      10.69391316       0.73624108      -1.87191359      -1.60919885
O        2.51985932       0.90354992      10.75367422      -0.76224040       0.24592011      -3.18156097
O        2.06414148       3.28065803       4.74644004      -0.82725070       0.25810553       0.99154776
O        1.91295954      12.10787831       0.76743250       0.91562408      -0.46840225       0.97229814
O        6.83697634       0.35988421       4.83341758       0.93240459       0.93872525       3.63363205
O        6.51748091       6.61622954       7.59214613      -0.33747585      -0.99590084       0.57829406
O       10.04403883       0.55801761       3.30848289      -1.52117159       1.10276396      -0.67698031
O        0.28990595       8.44913081       8.47232497       2.85801614       1.39502344       0.23184314
O        3.39733447      11.71512572       3.81051025       0.02413439      -0.35157260       0.09323858
O        6.14016298       6.11109142       3.35198748      -0.14176275      -0.19132832       0.36965079
O        7.96935183      10.50204093       2.85047053       1.24022957      -1.24295773       0.46711826
O        0.92706429      11.21337274       9.15547717       1.03147732      -0.96257423      -0.48750648
O        3.36677671      12.38295434       8.23106367       0.32916979       1.02771801      -0.40361974
O        9.23646981       1.75180584       6.27362793       0.39778312      -0.45480717       0.25437264
O        1.21427247      11.44940569       5.66581741       1.02870801       1.10009527      -0.23416776
O        3.56545693       5.54815983       5.18335526       0.01539783      -0.85120573       0.14338182
O        7.16234257       0.40159297      11.01672459      -0.92408276      -0.69395579      -0.37830693
O        4.18360412       3.10931860      11.48222738      -0.08120966      -0.08863366       1.37369064
O        8.54065022       1.19015071       1.09305522      -1.29301422      -0.28973962      -0.94659605
O       10.26538702      11.16493908       5.10428281      -1.95181890       2.64894241       1.13080956
O        4.66135628       9.39384754       5.46789837      -0.20702369       0.01149657       0.62782521
O        3.22457049       5.69649752       1.93693255      -0.37959603      -0.73935546      -1.46309778
O        6.32386153       2.44607188       9.23878258       0.20805946       0.15936467      -0.22933861
O        1.63112784       7.52056331      11.68539275      -0.19151645       0.57802530      -3.12345427
O       12.24999545       4.91367783       4.42828728       1.03503629      -0.36567410      -0.76588244
O        7.53688968       9.43835259       5.42844546       0.31015112       0.92380279      -1.40867998
O        4.51517462       6.76056011      11.54568299       1.55540669      -0.27748634      -0.62785178
O        9.62598711      11.08170508      12.00803380       0.21344386       0.56108733      -1.14451694
O       11.93653879       9.01421568       5.72428715      -0.58257596       0.85827128      -2.60610693
O       10.24022326       5.51065319       9.20054444       0.06250564      -0.54378052       0.29632497
O        8.70686971       3.77676955      10.46418750      -0.04421402       0.99163701       0.23774036
O        9.69044857       0.88680686       8.95285430      -1.06114690       0.41855088      -1.12619136
O        6.39526630       2.60747455       6.33786685       0.06366945      -1.65999097       1.25856182
O       10.48256359      10.74255090       7.97004501      -0.39370209      -1.14165906      -0.51588684
O        8.62100753       8.80817191      10.56235368      -0.73434945       0.81135931       0.04837825
O        3.51246202       2.45554219       7.06249579      -1.88710635       0.18579345       1.07303782
O        5.11008536      11.13178088      10.92689656       0.19183429      -1.54613748       1.03149925
O        3.42559325       8.34215166       9.38862998      -1.25685746      -1.88944886      -0.83884252
O        6.27196598       9.19870237       0.45556050       0.53748742       0.03036718       0.42737374
O       10.53610429       2.95453589      12.05909097      -0.89815931      -0.57477259       0.24698950
O        6.95738293       5.56434372      12.30159557      -3.21636396       1.61514173      -0.04843801
O        1.46926491       8.88046490       2.52203218      -3.17524613      -0.05239709      -0.39473219
O        0.08273944       4.56722286       0.29329401       1.64980514      -2.52000708      -2.57474566
O        2.53127023       5.02441146       8.38273892      -0.68092130      -0.19284697       0.97274103
O        5.24335229       3.30693072       3.51237930       1.57255293       0.41262672       0.54139381
O        3.06650265       9.80935404       0.00211280      -1.47168397      -0.66980040      -0.25084316
O        3.07724022       2.27495917       2.07970605       0.59691327       0.81609614       0.33157641
192
Lattice="12.429 0.0 0.0 0.0 12.429 0.0 0.0 0.0 12.429" Properties=species:S:1:pos:R:3:forces:R:3 energy=-937.5103088098159 pbc="T T T"
H        6.42834961      10.58360962       8.78563354      -0.05743296      -0.38717850      -0.27476897
H        5.13108223       2.21892387      12.12892952       0.55388705       0.31639703       1.56759970
H        0.55096071       1.96994174       1.56402907       0.22533101       0.69367587       0.66980582
H       10.28968245       8.87880557       0.56569839      -1.11602796      -0.03506055      -0.17767664
H        2.33521494      12.29466376       5.14751404      -0.76561528       0.30773354       0.81133507
H        9.94324566       5.93714334       5.87839746      -0.10582587       0.61927828       0.07159042
H       12.25205323       9.51178395      11.77085579      -0.52099229      -0.04976729       0.55170434
H       11.49203497       3.22771403       2.50684879       0.60272606      -0.31976456       0.06725703
H        2.26103307       7.19877347       3.90543841       0.08869873      -0.11332477      -0.28998442
H        0.21534125      11.06525357       2.14266598       0.00541770      -0.45586553      -0.02070630
H        2.50864481      10.50162215       8.15774158      -0.44247153      -0.11300192       1.19407130
H        8.91701739       9.48096908       2.42780745       0.93988269       0.96378840       1.64095237
H        7.81011081       6.54351610      11.33164666       0.42105827      -0.23894434       0.78290688
H        6.34989321       3.77922936       0.52685714      -0.04316861      -0.01460455       0.88898714
H        3.01813645       8.23744469      11.08293648      -0.84499563       0.34648489       0.13349080
H        6.36141406       6.43592506       5.02536389      -2.30234088      -0.38377279       0.60835628
H        7.95840389       3.45615128      10.66680820       0.11081849       1.31595984      -1.75984073
H        7.89078072       4.55454306       7.68137741      -0.67625316      -0.17101352       0.51513617
H        1.75144346       0.53123028      11.73436017       0.50251535      -0.18619524       0.25730454
H        9.91964345       2.00613533       8.41908350       0.30048808      -0.20687201       0.40159832
H        1.16501756      10.18670773       5.99984362      -0.71042417      -0.32101570      -0.53574407
H        8.61320653      12.34464276       3.04679302      -0.96838850       0.00606679       0.87606457
H        5.66951997       6.48311537       1.36307646      -0.27631127       1.50778543      -0.63355019
H        3.74350645       2.80873467       3.59903224      -0.64501267       0.06915976      -0.24137490
H       11.72585183       9.59509530       7.60842257       0.09897832      -0.24569327      -0.36287263
H        2.51407999      11.84326646       1.12337868      -0.13995805       0.12499024       0.52380839
H        1.81902195       5.22606123      12.27624593       0.02159308       0.38420507       0.28922650
H        6.97563904       0.57629176      11.85658339       0.49559885      -0.93591134      -0.09973038
H        2.71911870      10.55012215      10.68640815       0.64807623       0.21426504       0.19021349
H        0.63243408       1.92267291       9.14926589       0.17118011      -0.22053334      -0.94517660
H        7.44390805       1.48656849       6.43014131      -0.09444779       0.24987223      -1.94319684
H        8.13893431       0.29197784       9.05215789      -0.13406939      -0.25088425       0.10096558
H        5.01332860      10.99693660       8.55497026       0.02968567      -0.21051918      -0.19989120
H        4.21381884       1.09068952      11.56573039       0.55797884       1.45250470      -0.05993975
H        0.69513337       1.56839346       2.99242715       0.07215663       0.54197991       0.54508703
H       11.15591649       7.71509598       1.22382816       0.17981266       1.34012716      -0.65923345
H        3.44517910      11.35971596       4.61976076       0.55012698      -0.72375106      -0.18609146
H       10.25201106       4.46359453       5.82617271      -0.61355523       0.26277517      -0.29391996
H       11.92566283      10.89251316      11.05562413       0.00016445      -0.53060252       0.58529889
H       10.59938588       3.85269715       3.64302612      -0.18888943      -0.98279449      -1.43309197
H        1.47819553       6.45041290       5.00187763      -0.03012755      -0.35145531       0.17515937
H       11.51345444       9.90006179       2.11862305       0.88860555       0.82917413       0.49746377
H        3.51749719      10.06749532       7.13633761      -0.21731583      -0.08675129      -0.33791124
H        8.16023009       8.23041188       2.05690942       0.54246208       1.33567574      -0.60067953
H        7.96275977       7.44611703       0.10056322       0.09598522      -0.26705495       0.00179192
H        6.33222666       3.55587324       2.10496986      -0.36580885       0.18072327      -0.97509629
H        3.13953218       6.73313804      11.87926905       0.15712320       2.15951407      -1.25631579
H        5.23770970       5.39885703       5.61536344       0.19133127      -0.63945742       0.06059304
H        7.81186568       2.00018439      11.00288711       0.32005621       0.47029114      -0.06928582
H        6.71609675       4.78532156       8.82501646       0.69397729      -0.44173297      -1.24929104
H        2.82083223       0.06254070      10.72115860      -0.01799074       0.10067281      -0.23931933
H       10.87562857       3.00298000       9.22126263       0.33409120      -0.60426066       0.21958651
H        0.27284978      10.20008484       4.64163578       0.26972365       0.27163721      -0.66968576
H        7.08380674      12.15705195       3.06276235      -0.61355000      -0.00184939      -0.64732908
H        4.77380660       7.29399167       0.34525339       0.46367702       0.27175015       0.20792259
H        3.94334107       1.25507800       4.11445276      -0.19451250       1.05043289      -0.19543004
H       11.55831927      10.02828210       9.06943713       0.14721045       0.36508626      -0.89413825
H        2.13749018      12.03220680       2.67633149       0.63237568      -0.18243585       0.29799514
H        2.77151776       5.15270330       1.10046001       0.40084609      -0.60266290       0.62981886
H        6.81189260      11.51424215      11.70553784       0.24164849       0.05550242      -0.14405131
H        1.53476172       9.79548365      10.33795161       0.23272308      -0.33570668      -0.34576473
H        0.33477656       2.25252655      10.59921741      -0.14939010       0.41353937      -0.31672752
H        7.26025695       1.29354534       4.82104669       0.07067776      -1.46409622      -0.60623113
H        8.84806299      11.30449468       9.00001514      -0.38652734      -0.37741140       0.12644299
H        4.31601984       0.89041056       8.85420288       0.07853252      -0.20841465       0.15889348
H        6.58054320       2.49546660       8.64792004       0.25981890      -0.04746599       0.01064618
H       10.90610694       0.18234793       2.47637625       1.15043543      -0.65915921       0.82986083
H        6.88531842       9.80112354       1.67357772       0.76964435       0.22228199      -0.03684889
H        0.89254667       4.36253428       9.94498915       0.09859579       0.80627938       0.20835437
H        5.26018201       7.33652913       7.38548562      -0.76760365       0.01388013       0.43464014
H        9.70372674      10.61640094       4.64884088      -0.51514217      -1.08706807      -0.19202165
H        5.99257456       3.42770941       6.37611135       0.42838410      -0.17003848       0.14074693
H        8.42907490       7.22418480       4.38561641       0.01841892       0.08726041       0.21152618
H        1.33936082       6.08054309       7.32243463      -0.00478413      -0.03231585      -0.25908462
H        9.97599423      11.96566761      10.94685742      -0.02211953       0.41872952       0.22823364
H        9.64821866      11.93022106       6.91649612      -0.20107429       0.19071181      -0.12071384
H        0.05852568       1.88110952       5.53514507      -0.50200072       0.94851717      -0.09706747
H        5.83809914       6.62302725       9.39799860       0.05653330      -0.71696480       0.44649951
H       11.61629543       8.53511717       5.43110468       0.47955174      -0.07061562      -0.03138663
H        0.30869645       6.04183397       1.57603734      -1.85627324       0.29944182       0.23183286
H        7.38796107       7.95848841       6.79376217      -0.61432485       1.31800358      -0.94318060
H        8.88012191       9.08478073      10.23877502       0.04212715      -0.14837969      -0.09785465
H        1.89159447       1.99304838       7.61389185       0.43524502       0.42140146      -0.13829965
H        7.73769668       9.58537916       4.88764385       0.56194063       0.20782197      -0.23383630
H        5.49316842       9.98899930       4.83170911      -0.57311433      -0.51685294      -0.83408828
H        6.14663140       9.53333826      12.15883315      -0.53448046      -0.68203527      -2.04814777
H        8.65135142       3.39245658       2.65693709      -0.64158694       0.72652866       0.96208530
H        4.43773767       6.89516763       4.06390012       0.43258521       0.00824899       0.14386197
H        3.02992695       7.20902063       8.60502891       0.40588597      -0.64495309      -0.25398014
H       10.11197969       3.58417821      12.29416820       1.13399234       0.65058708      -0.04571130
H       11.55422687       3.14265270       7.02784019      -0.45226344       0.00661727       0.07442852
H        1.95968974       3.77123317       2.74587610      -0.56192602      -0.72306181      -0.14581018
H       11.84538726       0.95633911      12.06634143       0.04676119       0.55915349       0.13548627
H        5.38921733      11.99882964       1.59958114       0.73049998       2.65583879      -0.05371593
H        4.06700229       3.30578112      10.66842564      -0.00252547       1.13599104      -0.53682963
H        3.67378526       3.65962538       7.14590755       0.53840459      -0.28264473      -0.84770308
H       11.65394191       7.32915363       4.48883769       0.68223278      -0.21202063      -0.43904292
H       11.44884502       5.90753912       2.58053185       0.74075495       0.31153046      -2.09739468
H        8.14074643       5.81325442       3.88456942      -0.18836758       0.48333672      -0.36163418
H        1.69578190       4.65309390       6.93879453       0.74395321      -0.24653451       0.25135039
H        9.90256373      12.19647821       0.04565265      -0.30794514       0.15204672       0.51406699
H       10.87363919      11.37287160       6.27011284       0.04720946       0.01249433       0.00871804
H       11.96132597       0.56936573       4.99882849      -1.29014761      -0.72958044      -0.08166150
H        5.16376216       5.42713416      10.09193797      -0.11159009      -0.35945250       0.17885302
H        8.08290807       3.81346469       4.08770415       0.23274285      -0.70574806       0.45970581
H        4.23684754       7.40903426       2.55725494       0.46388969      -0.03439717      -0.44199321
H        7.93231171       7.71009516       8.21385001       0.04570895       0.04301517      -0.67309148
H        7.35952975       9.31453438      10.08435259       0.72083952      -0.41707107      -0.12702259
H        0.90731717       1.03509219       6.95885174      -0.95614066      -0.61778184      -1.62220709
H        7.11215261      10.19243019       6.15803094      -0.05525296      -0.50865983      -0.38853486
H        4.35946243       9.16955125       4.01809481       0.07062129      -0.80862785       0.09147083
H        5.32696814       8.70454904      10.99558745       1.03667303       0.82117769       0.53177384
H        3.21814256       4.64310566      10.68799007      -0.39713596       0.02977031      -0.33867887
H        3.21779966       3.50211258       8.54655038      -0.07961849       0.43319853       1.22202669
H        1.90168363       8.09279706       8.77626667      -0.61625303       0.14234326      -0.07585333
H       11.14229205       4.71780494       0.39452003      -0.32555018      -1.12043308      -0.74350118
H        0.01222592       4.04218914       6.21224807       1.44015027       1.84992720       0.16519270
H        2.57543595       4.88283557       3.56413342       0.12658811      -0.01540731      -0.11013108
H       12.08450322       2.50179910      12.26673104      -1.25887029       1.50994487       0.17244912
H        5.01438620       0.96825031       2.30363419      -0.02716015       0.39992667       0.09263807
H        9.91787176       8.98403712       4.59131016      -0.11939203       0.93008290      -0.38890973
H        4.94835635       2.90543655       5.27723754       0.24266022       0.38720375       0.55311666
H        3.23366926       0.05272421       8.16895664      -0.20267911       0.15056855       0.60558077
H        5.99618469       1.68153816       9.88461962       0.75659120      -0.11496735      -1.46941345
H       10.19890061       1.64221497       2.46396101       0.51838517      -0.68818137       0.12145633
H        5.54389083      10.03134953       2.25626706      -1.74137808      -0.81766798       1.96254924
H        1.21610574       5.93729607       9.87712591       0.43672229       2.08984413      -2.07228137
H        4.95291532       8.51223276       8.34368561       0.21847571       0.55191744       0.06035865
O        5.65638964      10.31059855       8.25032204      -0.07405202       0.85955128       0.42530551
O        4.71931293       1.93731695      11.32147681      -0.95704872      -1.81743533      -0.92264365
O        0.61467773       2.39823483       2.47855886       0.03938785      -1.15114359      -1.38816249
O       11.16203740       8.68826242       0.89118587       1.19509336      -1.24626720       0.63869860
O        2.82485429      12.06431014       4.36810139       0.32361158       0.42168096      -0.73999828
O        9.57344358       5.12598252       5.50913392       0.74125558      -0.98691266       0.17821159
O       12.18039075       9.95512074      10.91286888       0.53946565       0.31254024      -0.91958886
O       10.56104900       3.36807358       2.75187190      -0.48325605       1.33571342       1.72717478
O        1.50811542       6.57720980       4.03550804      -0.29977940       0.08379345      -0.03781947
O       11.97042526      10.60582424       2.69278256      -0.55911444      -0.15499093      -0.20118880
O        2.61454652      10.42537581       7.21392387       0.58787396       0.04260002      -1.01820948
O        8.46149480       9.12779744       1.67594952      -1.59377368      -2.62469274      -0.72607608
O        8.34497591       6.62362079      12.16845668      -0.64633430       0.41200502      -0.92996846
O        5.74441773       3.69419883       1.30387873       0.47418856       0.13348268      -0.23812213
O        3.56834353       7.47267216      11.26600444       0.81338246      -2.47810750       1.33919419
O        5.36555678       6.32700896       5.35898451       2.08787982       0.85148589      -0.53596781
O        7.93941219       2.88253478      11.40284621      -0.11957135      -1.49380822       1.75307287
O        7.07280870       4.16320176       8.07332962      -0.01378478       0.55668783       0.72787374
O        2.57721565      12.41838890      11.66913220      -0.30638328       0.25833983      -0.66275933
O       10.14571436       2.93147003       8.58587885      -0.51064201       0.68419089      -0.73458309
O        0.32113327       9.89417542       5.55509804       0.28507194       0.09633307       0.96535479
O        7.82994508      12.17385923       3.66275391       1.39749037       0.22025860      -0.39741741
O        5.40430538       7.42943049       1.09893437       0.07415208      -2.02072344       0.22078021
O        4.37848791       2.12540986       3.88964673       0.77414739      -1.52530448       0.45954185
O       11.64428401      10.39013784       8.14333904      -0.20447610      -0.21991519       1.31420778
O        1.81085605      12.06572570       1.76280214      -0.61040928       0.00712880      -0.46209037
O        2.21128958       5.74961717       0.59824267      -0.67482830       0.12688077      -1.00255858
O        7.43823325      12.21973916      11.45114351      -0.91262017       0.74799950       0.61882758
O        2.52138320       9.76751775      10.14982867      -1.26519980       0.31303206       0.23244718
O        0.31769747       2.66221882       9.69226634      -0.12668100       0.17145352       1.02743048
O        7.42250412       1.91460052       5.51912571       0.37798460       1.26089900       2.68456456
O        8.97497606      12.25168739       8.85580923       0.45717157       0.51707143      -0.28654793
O        9.37425203       9.75644871       4.24210280       0.31208098       0.01308927       0.19497003
O        5.08240455       3.51244123       6.07680383      -0.88197417       0.17327694      -0.59739590
O        3.70678228       0.14256494       9.03158949       0.31294945       0.01317135      -0.69686903
O        6.47103151       1.56988334       8.98519409      -0.94080595       0.12134660       1.39840423
O       10.22248053       0.71602074       2.10677079      -1.79601089       0.79571722      -0.95468799
O        6.07771068      10.34295300       1.56154040       0.77606575       0.61476277      -2.03506661
O        1.13787441       5.20336947      10.42818347      -0.32332774      -3.10936684       2.31695137
O        4.68813672       7.59853925       8.16300071       0.84985755      -0.49922211      -0.71129344
O       11.05891320       7.81794284       5.05680730      -0.79490545      -0.04501623       0.66963162
O       11.70883313       6.12792977       1.61429511       1.26510951      -0.71715197       1.82030648
O        7.77654600       6.73350116       3.86544739       0.20020358      -0.29509964      -0.02247386
O        1.22794622       5.42896390       6.58596914      -0.49414876       0.46246566       0.14384807
O       10.52518672      12.11305282      11.74569077       0.30861987      -0.17295698      -0.83270784
O       10.05115319      11.84158447       6.02844729       0.55179849      -0.08694150       0.13952103
O        0.33928146       1.02513371       5.18100539       1.51141230      -0.27537541      -0.23819108
O        6.04828310       5.83015169       9.96879733       0.44397926       1.00463002      -0.52803263
O        7.93589661       3.89077454       3.14108637      -0.00264512      -0.13151608      -1.15325956
O        4.00471292       7.56611771       3.48167167      -0.99684566       0.38077750       0.45210150
O        7.83766350       7.31456776       7.31428610       0.77132310      -1.31322419       1.51741617
O        8.21001065       9.18729262       9.54287729      -0.45714258       0.50134386       0.36734857
O        1.35682139       1.19186316       7.76821200       0.90078030      -0.31518553       1.61035864
O        6.98055127       9.47103253       5.49973081      -0.41672016       0.51732699       1.06945707
O        4.69455317      10.05955911       4.22100175       0.34264294       1.41042721       0.53747192
O        6.08884001       9.35385735      11.13238376      -0.96590422      -0.16779029       1.89468542
O        3.91378311       4.19582438      10.17701971       0.07865388      -1.21096145       0.70180535
O        2.86121289       3.47085748       7.65511213      -0.43906827      -0.18054859      -0.48978847
O        2.05090983       7.14718595       8.63627742      -0.17127108       0.52347896       0.04974563
O       11.05691597       3.91194966      12.21579902      -0.96101086       0.42716451       0.69900865
O       11.77268665       3.39242503       6.10491553      -1.37038860      -1.63978441      -0.01455508
O        2.82246921       4.09152086       3.02961050       0.22090938       0.98310624       0.17860672
O        0.10886237       1.66487085      12.16911196       0.91203568      -2.12817894       0.01004831
O        5.55244004       0.61002288       1.57833997      -0.44988716      -2.70186409      -0.30154067
192
Lattice="12.429 0.0 0.0 0.0 12.429 0.0 0.0 0.0 12.429" Properties=species:S:1:pos:R:3:forces:R:3 energy=-933.0543861058097 pbc="T T T"
H        5.42930147       6.10532000       5.04327851      -0.71925686       0.33116708      -1.20538489
H        3.62162265       7.42455909       9.55563786       0.77687178      -0.40743476      -0.14331805
H       12.21834996       0.51806620       2.58824499      -1.30891163       0.23216625      -0.92874643
H        3.46114554       7.59918545       7.07100309      -1.57148547       0.66247305      -1.06098234
H       11.82910739      10.38063568       3.09475859       1.19544141       0.24715693       0.65740030
H       10.82195907       5.06891855       9.21440661      -0.36045414       0.06192703       1.11370564
H        4.34980560       4.39357498       3.51925737      -0.60898827       0.57277296       0.16094262
H        8.35041671       6.43630329       7.11258943      -0.17091795      -1.56005059       0.07958074
H        9.44201492       0.74831594       4.62977631      -1.00084050       1.91169999       0.89111771
H        2.62312481       5.47973928      10.14466921       0.39918043       0.63427357       0.01907985
H        7.65175258      11.89203104       2.22940178       1.36396745      -0.76347471       0.46570859
H       10.77330681       7.61167450       7.68663504      -0.98934270      -1.70862885      -0.53496215
H        0.58465311      10.33463663       6.15950344       0.11029210      -0.13193031      -1.65924964
H       11.15682574       5.18807029       1.98828569       0.94045492      -1.21705954       0.08808138
H        9.71430057       9.98171743       2.01950000      -0.28799732       0.30649642      -0.34940355
H        8.01268104       7.50633221       1.34736353      -0.27185059      -0.94931344       0.27715239
H        0.06861363       6.75361964      11.97041571       1.39791997      -3.40575481      -0.70614863
H        6.33686295      12.19968046       8.17331218      -0.29528454      -0.67287058      -0.00584948
H        9.75560711       4.60749275       7.34609079       0.68456526       0.42920906      -0.26861200
H        1.62893852       2.56342510       8.58175196       1.43187385      -0.27012902      -1.21762571
H        6.19055790       3.96036961      10.67821947      -0.27682746       0.00730836       0.02056805
H        6.12144280       5.70672268       2.25606581       0.42912648       0.42847183       0.53270968
H        6.61637450       2.66375395       7.09167250      -0.62477513       0.39058026      -1.32205058
H        9.56312617       1.81820062      11.64387868      -0.75088784       0.43499352      -0.37552330
H        0.69577435       6.82273634       4.85037933       0.37472400       0.92228520      -1.75893222
H       10.00181911       3.63292504       0.65888306      -0.12721065       0.31646011      -0.45909396
H        4.98784122       9.99861932       0.51791683      -1.18959412      -0.09452674      -0.92633385
H        5.24513252       8.95734500       3.32522666       0.12886511       0.25336051      -0.29740249
H        8.01714978       5.35353546       8.82756225      -0.01956505       0.02142847       0.56948490
H        8.61641036       2.92243851       4.90918393      -2.07488344       2.63163788      -2.36563743
H        0.09071143       8.91549160      10.80215196      -0.38253311      -0.83886241       2.05593642
H        1.51243748       6.53538477       7.03312828      -0.02577850       1.89234684      -0.33896930
H        6.47628074       6.20139839       6.07107381       0.78512735       0.17862975       0.49911531
H        2.21232023       7.60894609       9.41545875      -0.72703025       0.26730096       0.27052210
H       11.21491551       1.37125986       1.69475525       0.00780437       2.37221320      -1.27436860
H        4.65341151       6.56148606       7.05721155      -0.54219630       0.33522965       0.05822480
H        0.79607199      10.93535581       2.75823073       0.75860753       0.09427127      -0.82217114
H       10.02822199       5.52855170      10.52307042      -0.13143058       0.54987018      -0.02135070
H        3.40537932       5.08694241       4.54592099       0.19674770      -0.00481825      -0.49209710
H        8.72597933       7.17863252       5.76425865       0.31253477      -0.55143625       0.00623019
H       10.34348378       0.00367517       3.80383589       0.06881091      -0.63629392      -0.09888794
H        2.25988771       4.03789714      10.14506786       0.87600978       0.33684984      -0.53792177
H        7.09994955      12.23686516       0.85766957       0.03501319       0.89100547       0.16945140
H       10.51132919       9.12574928       7.22406096       0.88830170      -1.86331803       1.58139012
H        0.02980742      10.26517929       7.49906489       1.41773153       0.43007761       0.08645373
H        9.86746979       5.69501422       1.22631231       0.27475254      -0.09115274       0.14595114
H       10.42215841      11.24697946       1.55324158      -0.79684890       0.14021320      -0.21264466
H        7.33959553       8.79231817       0.97130834      -0.82587889       0.46755204      -0.01357472
H       11.67753445       7.44555992       0.59136866      -0.17807475      -0.19918026       0.38142474
H        6.86088435       0.45507255       6.72926032      -0.63806099      -0.60288685       0.84923460
H       11.20748019       4.78775104       6.76335928       0.57866874      -0.69199353      -0.70299753
H        0.21805444       2.66324026       8.76118499       0.17094333       0.28014985       0.89944805
H        7.31570510       3.16402425      11.35666779      -0.09611727       0.22590332       0.20745982
H        6.58733600       6.93739440       3.10557473      -1.27708939       1.85819142       1.04832492
H        5.99467345       3.72049321       6.08539515       0.24005663       1.60482606      -0.12001138
H        9.15972860       1.95696964      10.10284635      -0.28153760       0.23333948       0.52635247
H        1.32249891       7.64917573       3.57946455       0.02128176      -0.36869626       0.39734380
H        9.74852473       3.22180307       2.09363249      -0.61773380       0.08580372       0.42338726
H        6.13190582      10.75070332       1.12136739       0.34946615       0.79006686       0.35349428
H        4.36283116       8.93048940       4.57006804      -0.40403383       0.37428451       0.77189028
H        6.79063890       4.56736881       8.28312896      -1.12234909      -0.11197533       0.19317513
H       10.13044689       2.92672204       5.65711745      -1.83592273       0.13782637      -1.26559407
H       11.77505564       8.79200576       9.44126507       0.40224931       0.03792802       0.38663023
H        0.72197882       7.92886712       7.25278506      -0.57264947       0.21872937       0.27439338
H        3.93280867       0.31951920       8.94217570      -0.18307042       0.24070304       0.36352155
H       10.40122991       0.16609891       9.70952391       0.03848261       0.01125470      -0.89093072
H        3.28771918       1.97537615       5.24107364       0.15949471       0.23032063      -1.70134531
H        2.65840919       9.61448326       6.02446037       0.62880300      -0.16101008       0.03986273
H       11.97024955       2.36860052       5.93196625       0.23116358       1.59655297      -0.66535282
H        8.37799874       0.99600515       8.41703943       0.50951158      -0.25651382       0.32029192
H        7.79151662       5.10303402      12.20513633      -0.76892125      -0.94297394       0.10140781
H        3.59524983       0.69873651       1.21633895       0.17762399      -3.00081020       1.06683339
H       12.15109205      12.34322260       6.98537575       0.90566696       0.03935908       0.42586163
H        6.18238315      10.26211950       8.94815712       0.33464301      -1.01652484      -0.58224546
H       10.03093747       8.04338396       2.60580029      -0.97504777      -0.73718972      -0.25913245
H        3.33506803      10.56981992       2.45335041      -0.19067854       1.55336706       0.60064617
H        4.37241824       4.46755647       8.78025081       1.37998367      -0.72481615       0.19472227
H        9.01831972      10.07110006      12.20955341       0.41645234      -0.03325690      -1.01122905
H        0.06816496       3.35521295       2.09666499      -0.04973199      -0.19151495       0.14017956
H        8.36058680       6.06788328       3.81367085      -0.35212941      -0.26110525      -0.34567386
H        5.57414624       3.71032951       0.79234525       0.22430712      -0.09352496      -0.60287452
H        5.54911308       8.42149282       7.57510179       0.84649301       0.51581376       0.53758510
H        7.02324633      12.19693882      10.95370092      -0.12789609      -0.80231209      -0.24474708
H        5.00735415       1.96220363       9.90250685       0.76736379       1.62152349      -1.48228063
H        9.07637537       7.60968663       9.21999490       0.07601858      -0.70521780       0.27134780
H        1.47665317       4.18792552       6.42541451       0.03495533       2.25216392       1.53656096
H        8.54985838      11.05174281       7.48211542       0.40524597      -0.84868441      -0.44966932
H        7.10930173       3.56289888       2.82894609      -0.99485318       1.06387487      -0.17931845
H       12.31980792      10.09526918       0.28507945       0.94910393       0.89259206       0.02393858
H        2.79605481       6.99919409       1.31023749       0.18992760      -0.50691558       0.04253644
H        2.71911493       1.57543333       7.53103309       0.40914589      -0.48868146      -0.37638387
H        0.36179713       4.05437043      12.13950124       0.04786986       0.17430509      -0.22369708
H        0.66853961       1.99010212      11.92141835      -0.10706968      -0.57885432      -4.33564084
H        5.55485918       0.92702426       4.62706673      -0.91967846       2.08843494       0.50226737
H        3.42729288       9.54430165       9.22752995      -0.92138060       1.15564399      -1.78931563
H        3.59463675       9.34922738      11.29529706      -0.33718918       0.71983030       0.63966099
H        1.28432504       4.08005901       2.67735611      -0.52532549       0.02505497       0.41624578
H        9.88263681       6.16247085       3.57768718      -0.95952503       0.28408024       0.73142047
H       11.06473152      12.39933355       5.98551897       0.23574399       1.49708129       0.02646822
H        5.33163474      10.99549212       9.98701771       0.29354599       0.06174597      -0.15997345
H       11.29428354       8.10621615       3.43720578       0.62128034      -0.37778533       0.26876989
H        3.41162833      11.68928184       3.62902113       0.23125900      -0.27735307      -0.74281480
H        4.83359660       3.40310995       7.77063952       0.58413576       0.04018320       0.04303746
H        9.53789154      10.90056566      10.92848280      -0.77142420      -2.34370844       0.75033998
H        8.98789621      10.80532765       6.01749949       0.05464653      -0.76980093       1.26355286
H        7.74754349       2.29236667       2.56473717       0.31590003      -0.54407153      -0.07140639
H        4.89607718       2.92758138       1.95142493       0.21213100       0.80574458      -0.43882112
H        7.14165575       8.57014625       7.39925107      -0.49212142       0.21764771       0.27369778
H        7.73756070       1.08745507      11.27768148      -0.96441902      -0.41708844       0.76583156
H        5.44706721       0.97854469      10.94853302       1.19699738      -0.31943301       0.53095752
H        9.28785324       8.23864954      10.49622617       0.20016125       0.49798537       1.01811864
H        2.15963358       4.74527617       7.76505645      -0.56314275       0.27845301      -0.48238649
H        2.67415008      10.43836168       7.97908977       0.18199854      -0.91956241       1.44072477
H        2.62894734      10.41028632      11.87388925      -0.43645755       0.00510497       0.22223985
H        0.18041502      11.56926235      12.30546802      -0.21578167       0.05613212      -0.06977482
H        3.82568820       7.26206013       2.49027188       1.00402590      -1.15405334       0.85200753
H        1.67652321       1.75251536       6.39374555       0.18344451       0.34720602       0.68677366
H       12.29156230       4.91533562      10.90271125       0.21439234      -0.28679612       0.91842117
H        1.54620674       1.84503880       0.66009011      -1.26617250       0.61968782      -0.11872407
H        6.31523879       0.03906859       3.74586736      -1.22431689      -0.57607229       1.71788979
H        8.53565907       6.36428975      11.84349685       0.91558874      -2.05420904       1.16223496
H        3.93297266       1.69440594       0.21184463       0.55744001       0.46056701      -1.58288939
H        3.83928269      11.96804192       7.66330728       0.40674032      -0.75328803      -0.69064771
H       11.44291349      11.37879469       9.74719479      -0.16500046       0.08380520      -0.05036568
H        2.79228279       1.90992508       3.69253365      -0.47451846      -0.11348271       0.08934368
H        2.75755678      10.03180946       4.59807268      -0.37473507       0.26969726      -0.56163411
H       12.23096864       3.44011537       4.67651120      -0.35952565      -0.30455159       1.60647644
H        9.56236579       1.65547274       7.80969118       0.80290196       0.44340082      -0.76875880
O        5.70090021       5.67802805       5.84933704       0.09125878      -0.40343962       0.54912923
O        2.84899415       7.45906807      10.13873335      -0.02534235       0.39932884      -0.20214203
O       11.31871324       0.57236644       2.15067793       1.25414886      -2.88669642       2.40599888
O        4.15200962       7.23492894       7.58543549       2.33254536      -1.21403322       1.17260076
O        0.24183693      10.73873211       3.50831130      -1.75714990      -0.50415503       0.46583462
O       10.71774244       4.93931206      10.20905165       0.83202654      -1.00742517      -1.46582793
O        3.79103875       5.19670228       3.64979741       0.11897563      -0.51492026       0.47928623
O        8.49990235       7.27427150       6.70951039      -0.25669145       2.22692492      -0.04362435
O        9.77232981      12.29590425       4.59277594       0.85234108      -1.52249292      -0.72770851
O        3.00241389       4.63972644       9.83387076      -1.21582658      -0.68623842       0.41383520
O        6.95086375      12.38593698       1.82700390      -0.62112434       0.56717612      -0.59862415
O       11.11782882       8.47693100       7.79053220      -0.41433101       3.49697693      -1.48069794
O        0.79027964      10.70873547       7.00776459      -1.49897967      -0.49885299       1.61257575
O       10.60638776       5.93605339       1.83787309      -1.13910894       1.27198604      -0.09236551
O        9.55136065      10.78253225       1.47027058       0.84797442       0.14026352       0.59298816
O        8.20563014       8.41620828       1.13544174       0.81810679       0.14423427      -0.10981562
O       12.15209996       7.56669599      12.19174999      -1.18475926       3.80431106       0.71689937
O        6.89052980       0.42456389       7.71997480       1.24470895       1.37719607      -0.92751967
O       10.57729860       5.15800687       7.37438914      -1.27282407       0.27927158       1.13137159
O        1.04450026       2.76474304       9.29056280      -2.27979688      -0.10679123       0.90546429
O        6.57951279       3.78999851      11.55163898       0.16009552      -0.07309229      -0.21766701
O        6.89260248       6.19992402       2.62966568       0.45417464      -2.19473700      -1.51589219
O        6.07003035       2.79553256       6.26616595       0.53436795      -2.19841422       0.78003083
O        8.81193934       2.08331343      11.05055029       1.48837498      -0.11352134      -0.07822827
O        0.60261401       7.05123513       3.86577054      -0.37689896      -0.51493257       1.40637717
O       10.12643361       2.90084431       1.26916301       0.71387758      -0.30040272      -0.33652570
O        5.56904238       9.99567257       1.26921513       0.52649756      -1.17024614       1.01702605
O        5.03994419       8.42600449       4.10538194       1.08935473      -1.14867823      -0.79146844
O        7.65242111       4.92730916       8.04649623       1.49661455       0.22373581      -0.49954792
O        9.23673667       2.50849790       5.42244260       3.87903057      -2.66636591       3.64302720
O        0.14900425       9.13450083       9.89795798       0.15809499       1.02016546      -2.49543637
O        1.57149023       7.58569268       6.96544175       0.11408714      -1.40743831      -0.24266506
O        8.67953806       5.44505154      12.33597556       0.02785438       3.16096984      -1.25703905
O        3.48377620       1.59731287       1.03962927      -0.94720497       2.36303447       0.47684043
O        3.41906131       0.26315216       8.11520906      -0.09782682       0.83712461       0.65606163
O       10.97170381      12.05272004      10.26839779       0.32981450      -0.24944166       0.98781201
O        3.55395462       2.03425932       4.26445921       0.46164686       0.12419852       1.48513103
O        3.32376723       9.92444245       5.37036419      -0.91782766       0.07794083       0.64711448
O       12.01191213       3.37287684       5.68169403       0.29302323      -1.75724806      -1.15810763
O        9.33559492       1.25562163       8.64738499      -1.48966399      -0.35457326       0.01994550
O        0.39544839       3.73841323       2.93454541       0.53546408       0.10452987      -0.51223110
O        9.16071376       6.38075183       4.25251569       1.32837089      -0.24782689      -0.58118114
O       11.65257025       0.60029192       6.52291361      -0.96718414      -0.73967090      -0.62668422
O        6.20532840      11.03275417       9.54370545      -0.85952640       0.80632091       0.74128340
O       10.76520902       8.60368049       2.80602026       0.59578218       1.29582108      -0.03746015
O        2.98743389      11.46596347       2.76679022       0.34053202      -1.03359816      -0.17429272
O        5.22246623       3.96948091       8.47227798      -2.21600591       0.46280491       0.61845738
O        9.08988303       9.99764289      11.21227976       0.62526980       2.14191354       0.00036090
O        8.96882476      10.34240076       6.91968960      -0.18223324       1.70488573      -0.99621969
O        7.95094519       3.14419882       2.97937334       0.47580893      -0.63565300       0.24992116
O        5.31900447       3.79969950       1.71972409      -0.27044591      -0.83766628       0.90763441
O        6.36821364       8.89084732       7.92921990      -0.28311977      -0.59959907      -0.61332026
O        6.92217099       0.50349928      11.57307642       0.93899553       0.06133751      -0.28169338
O        4.67405475       1.40569229      10.56875475      -2.39539236      -0.97928590       0.82383114
O        9.32712980       7.33285690      10.13400694      -0.66949577       0.63579776      -1.21802934
O        1.60313980       5.05343730       6.99813863       0.51593794      -2.89210305      -0.64503953
O        3.48832995       9.98578706       8.32115709       0.35465709      -0.43174030       0.46674965
O        3.57388629      10.23477296      11.75358052       0.53052279      -0.94932543      -0.97466827
O        0.56839927      10.82978701       0.36775121      -0.62626170      -1.05014909      -0.02328242
O        3.14569296       7.62158136       1.95313277      -1.46192031       1.87021563      -0.79427068
O        2.27086998       2.27808858       6.98181776      -0.26596103      -0.39540691      -1.08161036
O        0.57157532       4.85259962      11.62014140      -0.08296567       0.21423314      -0.50438028
O        0.60595875       2.13873010       0.38246079       1.68119653      -0.04141297       4.23686186
O        5.77048747       0.01682725       4.61893354       2.00549392      -1.51600169      -1.98805167
192
Lattice="12.429 0.0 0.0 0.0 12.429 0.0 0.0 0.0 12.429" Properties=species:S:1:pos:R:3:forces:R:3 energy=-937.8190945919666 pbc="T T T"
H        7.00574852       9.57406436       8.69082135       0.31682919       0.15335081       0.76715351
H        5.07044799       3.11892961      12.27648938       0.33424033      -0.29301981      -0.32486795
H        1.39319403       0.39713253       1.98719111      -0.27382186      -0.02186116      -0.14595241
H        9.92192934       8.38876387       0.51713074      -0.52795377       0.05360546       0.21476037
H        2.15620127      11.96541447       4.94184044      -0.17706516      -0.41411377      -0.16043033
H        8.61029858       6.75777275       5.95174115       0.03702685      -0.64456198      -0.09063008
H       11.29549375       9.36850919      11.56406182       0.16796047      -0.49070695      -0.68908789
H       11.26938174       2.93537600       2.68684229       0.07467491      -0.21533962      -0.34298606
H        1.94804878       6.36491010       3.57769467       0.36400822       0.24320550       0.27760606
H        0.41797620      10.43909348       1.18102848       0.49386110       0.49729684      -0.00126449
H        2.22799438       8.44327234       6.50191688       0.04646531       0.04188773       0.47292763
H        8.83941000       9.63363661       2.20351204      -0.14252846      -0.62346039      -0.16657778
H        7.79770202       6.47403489      10.87660179      -0.04204136      -0.07008094      -0.21451359
H        7.08480156       3.71310981       0.17268942      -0.52229577       0.03631160       0.34027564
H        2.76665362       7.73942788      10.89297173       0.43958793      -0.52244338       0.49751105
H        6.16667853       6.62769700       5.25869033      -0.85580157      -0.17631255       0.44543675
H        8.63772329       2.72002706      10.45713621      -0.03580891       0.33703501      -0.59220604
H        7.87310999       3.57702179       7.93115672       0.49627402       0.43028456       0.17791504
H        2.02784882       0.94678942      11.18803977       0.98603321      -1.01034975      -0.07230716
H        9.77731885       1.93826624       7.92642746       0.34371323       1.60438881      -0.30013157
H        1.05870714       9.66593751       4.54764135      -0.72370514       0.72550450      -0.06927355
H        8.34985438      12.32404736       2.41644152      -0.53694956       0.33072540       0.15855519
H        6.11089344       5.71003858       1.03896760      -0.49012533       1.64406463      -0.33012853
H        3.31192760       2.36253653       2.94797993       1.11721976      -0.20437362       0.59621740
H        0.39839360      10.27544817       6.92524187       2.63015580      -1.31049945      -2.69427183
H        2.60472856      11.61291366       0.32732938      -0.52364254       0.18625731       0.98226687
H        1.80847239       4.93171521      11.97305140      -0.51174898      -0.89031602      -1.36493250
H        7.00377004      12.15713220      12.07578518      -0.37135381       0.33616157       0.37868973
H        2.10736461      10.59992333       9.95255778       0.04418750      -0.48335369       0.07548358
H        0.53043662       2.55596108       8.29027112       0.96575720      -0.62864658      -1.46387422
H        8.82963342       1.45790619       5.28463542       0.52996139      -0.27475638       0.42483018
H        8.00764998       0.48530411       8.95107154      -0.72154710       0.41897829       0.11769960
H        5.64454708      10.24896188       8.48518350       0.21415071      -0.42132238       0.09671929
H        4.43744315       1.76168356      11.74465734       0.24368180       1.03448399      -0.46203835
H        0.35420391       1.07115435       3.00738777       0.90337777      -0.15059898      -0.72081708
H       11.23963243       7.52353894       0.60099998      -0.19041761       0.86050575       0.09936474
H        3.37243251      10.98645268       4.56157065      -0.73538346       2.15908162       0.68168460
H        9.38913714       5.54039506       6.47305734      -0.05783667       0.05051720      -0.51533275
H       11.20094487      10.69690936      10.86150205       0.42062427       0.13717492      -0.17950805
H       11.12205661       3.64897459       4.02818103       0.17922011       0.43712450      -0.04957552
H        1.54873933       5.63257345       4.94904871      -0.19529965       0.32889300      -0.91311514
H       11.57763242       9.72804018       1.51610341      -0.67433978      -0.77757388      -0.15362484
H        2.66549239       9.88330788       5.89791898      -0.28753940      -1.92256499       0.07807076
H        8.10898113       8.27347101       2.04431298       0.19628255       0.82883154      -0.50001130
H        7.77123947       7.37701939      12.07291955      -0.05075103       0.03589282       0.06949820
H        6.69362061       3.64093752       1.63614577       1.29530760      -0.70424392       2.53625628
H        3.18430366       6.47459950      11.78082141      -0.35876415       0.09075122       0.11207366
H        5.33189349       5.29252034       5.41352838      -0.30431878       1.89888670       0.57920374
H        8.25828999       1.71599288      11.49805113      -0.16587390      -0.13027533       0.25130301
H        6.58632928       4.51559929       8.04305263       0.32125353       0.29964474       0.45353125
H        3.23384868       0.07254144      10.49620835       0.22167904      -0.13975232      -1.21438868
H       10.83742733       3.02635449       8.30774877      -0.10153019      -0.13443869       0.13092056
H        0.16468970      10.41151078       3.47567162       0.17259564       0.02670732       0.43852908
H        6.77763065       0.18489866       2.33554811      -0.19933001       0.18435736      -0.50350192
H        5.37121310       7.06125071       0.52618928      -0.85257938       0.02984841      -1.11250781
H        3.06976191       1.23550569       3.83304864       0.39132057      -0.73510557       0.65799951
H        0.05614642      10.36323211       8.36463363       0.61475480      -0.57260766       2.21402439
H        3.10627934      11.22756060       1.73139675       1.03760597      -0.62511172       0.96624340
H        2.63092611       4.46390950       0.87467155      -0.86596187       0.27819898      -0.85919025
H        8.01504154      11.48579955      11.21512695       0.60605623      -0.64115431      -0.72554259
H        0.95622655       9.59403296      10.34931497       0.30966005       0.34279007       0.09740130
H        0.23236157       2.45969664       9.74051540      -0.46891088       0.59902211      -0.20739877
H        7.84199516       0.95472515       4.21786503      -0.15435160      -0.63105132      -0.68759317
H        8.91182105      11.68237184       8.75314935      -0.06985516       0.94212483       0.23813472
H        4.49466265      12.17812342       8.25384545      -1.25583460      -0.11224615       0.47911021
H        6.25663408       2.10207687       8.30351277       0.15955259       0.18983848       0.37297221
H       10.62192470      11.90060699       1.70209713       0.35778698       0.82536583      -0.03261803
H        6.76570661       9.80740711       1.26767448      -0.16417409       0.09513447      -0.71220646
H        0.50202306       4.53863454      10.02107083       0.82098088       1.10482865      -0.19152589
H        4.78863063       6.94114921       7.12566390      -0.48705928      -0.14220247       0.22609308
H       10.20572629      10.49903467       4.17740593      -1.04961206      -1.78107188       0.13377367
H        6.12103152       3.26787776       5.63713625       1.89577959      -0.58819041       0.56760597
H        8.31781952       6.77015841       4.00333317      -0.20147106       0.31472869      -0.17914464
H        2.02353849       5.78688069       7.06324951       0.19707658       1.49437201       0.94275081
H       10.29445803       0.15245770      10.33640558      -0.10902647      -0.10330900       1.01895095
H        9.73741003      12.38975061       6.91069790      -0.06385786       0.03804829      -0.04583712
H        0.09135512       2.12658240       5.06773957      -0.15841066      -0.48540672       0.36521909
H        5.86417525       6.75206718      10.08614833      -0.12551357      -0.86034568      -0.12879272
H        0.02859219       7.76295509       6.09604268       0.50488009       0.27738818       0.41332560
H        0.51259959       5.66058280       0.90291676       0.18131124       0.13419498       0.28776898
H        7.34759239       8.79847094       5.60356452      -0.64159960       1.09370015      -1.79659770
H        9.48332973       9.93049220      10.26374703       2.05696733      -0.77528586       0.26592345
H        2.53437093       1.53141134       7.57794949       0.05043296       0.58282003      -0.51468417
H        6.96668469      10.80957683       3.95669431       0.01589931      -0.08344794       1.17879308
H        5.11086590       9.95768641       3.67763939      -0.14319739       0.04731892       0.08667437
H        5.91752416       9.70794635      11.42981951      -0.14666736       0.09141056       0.71365651
H        9.17068284       3.95916056       2.77238025      -0.42798121      -0.04569305       0.54210293
H        4.15990155       6.93960331       4.23352367       0.32366384      -0.21594910       0.59703374
H        2.75004225       7.45507727       8.19665382       0.57858988      -0.03524956       0.04089864
H       10.22617785       3.36889322      11.93217819      -1.31932814      -0.58486991      -0.56151918
H       10.92748798       3.56244171       6.42614395       0.55555167      -0.33546891      -0.34331868
H        1.45357912       2.76380288       2.22054286      -1.00047828      -1.26721501      -0.28686760
H       12.24811287       0.96081793      11.00778822       0.13332289      -0.00415584       0.50161341
H        5.22703728      11.83605826       1.28306521       0.17686224      -1.07563152      -0.33804288
H        4.12198382       3.51946641      10.34895662      -0.16699402      -0.02442113      -0.67236970
H        4.20615985       3.09992364       6.67100332      -0.51135925      -0.10360732       0.15224443
H       11.86115282       7.05454396       4.93525660      -0.10077075      -0.03848643       0.13262865
H       11.99597716       5.68933774       2.17229050       0.23584268       0.08715724      -0.89093791
H        7.39910291       5.99853699       3.17749013      -0.09661730      -0.13596597      -0.49408618
H        2.43666576       4.36243883       6.67149754      -0.31177335      -0.14363896       0.15012989
H       10.35749004       0.16584416      11.95927711      -0.28198668      -0.01794931      -0.17928575
H       11.01071947      11.54307894       6.75008445      -0.34322036       0.47154802      -0.44728233
H       12.05649391       0.62816700       5.01132530       0.27425202       0.27873637       0.38672356
H        5.11789346       5.38253593      10.06023261       0.42121786       0.30427855      -0.22507664
H        8.06395674       3.60258405       3.85920890       0.54835145      -0.14464861      -0.47021776
H        4.32018551       6.51897993       2.78565703       1.49058337      -1.04307126      -1.46041864
H        7.43925434       8.55052682       7.01745507       0.96390928      -0.61903746      -0.95958004
H        8.10562471       9.27805639      10.58494871       0.82670904       0.51630553      -0.61824488
H        1.45360519       0.91100308       6.65118655      -0.10344697      -0.00365200      -0.32710740
H        6.21811697      10.95965730       5.41203322       1.16255723      -1.44866050      -1.64635086
H        4.15553082       8.85614285       3.16940880      -0.32068496       0.68148662       0.01563972
H        4.75619612       8.80552183      10.98900130       0.59859539       0.13237064      -0.10640552
H        2.88724959       4.31199690       9.83831341      -1.01676305       0.59193583       0.13676274
H        3.63432577       3.37756168       8.12646307      -0.02419269       0.05363129       0.30838416
H        1.54138953       8.32727523       8.62197140       0.30689369      -1.09391276      -0.31052148
H       11.06432158       4.24977500       0.37152342       0.62721390      -0.68185000      -0.41461603
H        0.00177728       4.14741478       6.09377576      -1.68421793      -0.92332748      -0.54673908
H        1.80272045       4.15790559       2.73166029      -0.72462588       1.47775629       1.23359259
H        0.31308977       2.04261014      12.00620157      -0.40506470       0.38497771       0.38619017
H        4.68464353       0.73716169       1.74256442      -0.29878360       0.52149582       0.52750272
H        9.73665545       9.05227155       4.69325423       0.24101187       0.31842999       0.10602076
H        4.95717400       2.78275591       4.75871263      -0.65337256      -1.54107871      -1.61243348
H        2.90257356      12.25610542       8.14773508      -0.24192277       0.19320594      -0.59956020
H        6.03328607       1.50062864       9.74827727      -0.06066451       0.32627784       0.04827459
H       10.85674333       1.04591211       1.62209453      -0.51794861      -1.04077811       0.06970447
H        5.26970764       9.82780962       1.53958275      -0.21297718      -0.05023782      -0.30998446
H        1.17907732       5.77999263       9.31479299      -0.03200114       0.00112789       0.45383522
H        4.94996624       8.09800183       8.07735541      -0.11059643       0.23139470       0.31500196
O        6.32383150       9.71005072       8.03163369      -0.69601497       0.42353508      -0.78015207
O        4.83872973       2.63421336      11.44279588      -0.58768417      -1.17858701       0.72482511
O        0.75795617       1.15105559       2.09009633      -0.79749338       0.17423227       0.71761008
O       10.88591250       8.46652559       0.53405472       0.90602406      -1.29741576      -0.12441677
O        3.11019606      11.84820091       5.09097965       0.78600226      -2.04728922      -0.79842370
O        8.86808621       5.82111312       5.69410226       0.02561349       0.42269956       0.73940421
O       11.43893616       9.76183590      10.64784004      -0.13387362       0.06215388       0.65925292
O       11.13387401       3.81453348       3.05198460      -0.24805817      -0.05159309       0.28764719
O        1.22156249       5.91005811       4.03391452      -0.25722411      -0.62885102       0.30243179
O       12.01937318      10.57592839       1.66284001       0.07883263       0.41170222       0.42582034
O        2.46854797       8.90365283       5.68318005       0.29997047       1.89134615      -0.36172556
O        8.38112751       9.09214151       1.50834191      -0.39747188      -0.59394922       1.00925184
O        8.25087391       7.25714271      11.23286208       0.03448139       0.10981443       0.36658291
O        6.34666798       3.89049979       0.81408949      -0.55006387       0.83885580      -2.75046030
O        3.51375636       7.28557882      11.34988007       0.00958254       0.73040124      -0.49822303
O        5.28789306       6.31137215       5.62988748       1.30117934      -1.84863772      -1.27959859
O        8.40982518       2.68005827      11.38964692       0.13331803      -0.09558248       0.26228520
O        6.96010010       3.71191782       7.65658531      -0.75982906      -0.55939655      -0.64059923
O        2.84952132       0.34605102      11.32682415      -0.75410676       0.73255994       1.20861445
O        9.97932063       2.92805295       7.80819043      -0.68130750      -1.44117108       0.52584567
O        0.44086536      10.44487868       4.42809198       0.50901856      -0.54791713      -0.37671895
O        7.50393474      12.33326881       2.92512641       0.71596049      -0.82342980       0.22471640
O        5.96702559       6.71627664       1.17520659       1.13136807      -1.73892589       0.98610432
O        3.85660059       1.69322200       3.49919378      -1.03163830       1.10993086      -1.23922016
O       12.20538134      10.57917203       7.50791435      -3.19013444       1.68955961       0.52428437
O        2.29984448      11.41483470       1.27704528      -0.52633541       0.45389748      -1.88618516
O        2.27615959       5.21058686       0.31404066       1.25677728       0.70802766       1.72197818
O        7.74859943      12.36662512      11.49920891      -0.42285114       0.47758506       0.50748864
O        1.91079385       9.64772617      10.07969206      -0.67200125       0.07245095      -0.12116911
O       12.42099324       3.00341429       8.92416291      -0.49070586       0.00490256       1.66216717
O        8.15934111       1.74559501       4.66982524      -0.26595028       1.31518875       0.75030702
O        8.94599181       0.24434452       8.85410966       0.87842126      -1.25701380      -0.46331289
O        9.60283091       9.70428092       3.98224588       0.99194582       1.63417620      -0.18055613
O        5.24026775       3.44068923       5.36562879      -0.89968176       2.03936525       0.75406095
O        3.63682613      11.81739376       8.61963549       1.80482375      -0.33551393       0.40846789
O        6.34253713       1.29223549       8.85335793      -0.06041474      -0.69781343      -0.23088535
O       10.15201952       0.34831517       1.68779481       0.44533583       0.01531077      -0.33307210
O        5.90334589      10.06438568       0.82100009       0.39097128      -0.04011376       1.03683262
O        1.14640477       5.29727712      10.17352263      -0.76728274      -0.94509820      -0.30997835
O        4.36774146       7.32839204       7.94280358       0.72269675       0.03152152      -0.32331858
O       11.59802230       7.50864047       5.76007137      -0.43316028      -0.31210349      -0.51140344
O       12.04831917       5.91909836       1.20700437      -0.53797178      -0.04708489       0.58857588
O        7.54582521       6.93084776       3.41461307       0.64395862      -0.11259938       0.64654491
O        1.71408097       5.04613658       6.57730046      -0.18990676      -1.60984639      -1.08469911
O       10.82436825      12.31527428      11.14393302      -0.04594452       0.57709798      -0.94462190
O       10.41007753      12.16901387       6.24661351       0.34512844      -0.32518266       0.13838607
O        0.42178800       1.20190089       4.90752192      -0.34234514      -0.09391700      -0.36836072
O        6.02477810       5.77479678      10.03949932      -0.16169767       0.59263474       0.10860252
O        8.20638051       4.01505047       2.98043999      -0.32301766       0.27753038      -0.18895385
O        3.81168265       7.06985167       3.33940794      -1.71349703       1.49250772       0.68787504
O        7.91960068       8.30609697       6.16839269      -0.08129734      -0.48238397       2.58773971
O        8.56174190      10.05253644      10.13325180      -2.87321488      -0.40150148       0.30634008
O        1.78928168       0.89369584       7.56003577      -0.51872131      -0.09704176       0.67471103
O        6.64657838      10.28518756       4.75871399      -1.32051992       1.85347486       0.37320538
O        4.27389585       9.86018120       3.15862493       0.34380811      -0.82137939       0.03647979
O        5.58812290       9.22616492      10.66444784      -0.57249274      -0.45729589      -0.66294394
O        3.75590504       4.03510007       9.54489693       1.03290238      -0.31064052       0.84051398
O        3.38422762       3.01357155       7.23391087       0.50883284      -0.01217261      -0.62445963
O        1.76185142       7.46236204       8.15897846      -0.81380533       1.16105005       0.37854210
O       11.12010872       3.41491547      12.25062646       0.83012061       1.28918664       1.26482648
O       11.65985962       3.55236538       5.74938203       1.36027025       1.31294687       0.67813179
O        2.14799164       3.41875631       2.26104903       1.82325303      -0.11781820      -0.64711330
O        0.54769804       1.61762294      11.17492620       0.14650330      -0.44135035      -0.73330144
O        5.41764087       0.34473271       1.25230074       0.14211434       0.82156449      -0.20161909
192
Lattice="12.429 0.0 0.0 0.0 12.429 0.0 0.0 0.0 12.429" Properties=species:S:1:pos:R:3:forces:R:3 energy=-936.0188054762248 pbc="T T T"
H        4.15372546       0.60882422       2.62716168       0.18676381      -2.05619894       0.02639940
H        9.71688942       4.70633629      11.00220391       0.03533398       0.39146579       0.38315495
H       10.78745018      12.36236879       3.53367269      -2.05009758       0.75388137       0.23916480
H        1.97159820       5.52802065       3.21196073       0.71388914       0.75886554       0.68977115
H        3.27492471      11.25649279       5.77507814       0.05068378       0.05433786       0.71905593
H        5.85479232       5.41148559       6.18753222      -0.28311803      -0.10170452      -0.30890450
H       11.22024984      10.14120972       0.65433773       0.20160884       0.46448436      -0.38303186
H        8.63491777       5.62815974       5.70324658      -0.46749991       0.15252481       0.29941651
H        9.22858243       4.70409916       3.10326996       0.00895506       0.69363704       1.41716468
H        0.15881831       5.85578549       6.32157872       0.28089471      -0.47952763       1.80214944
H        4.85009622       5.85191662       8.79801061       0.33304482       0.41867094       0.34638567
H        6.75654947       9.28731200       6.57651795       0.21134740      -0.58949756      -0.53668174
H        0.67956226       6.31492907       0.21324771       1.52006772      -0.50987673       1.65230739
H        8.96835688       7.90226117       4.91297106      -0.11140286      -0.82800515       0.08284442
H        4.58423906       7.94583067       1.52469806      -1.76341847       0.27836632       0.09102042
H        8.79868126       8.61865119       8.03428950       0.14327322       0.55220743      -0.68652690
H       12.32761099       0.74099947      10.48772016       0.83456638       0.67584557      -1.85369852
H        2.70365472       3.50187385      11.48388336       0.37804862       0.95827619       0.62970963
H        3.01350954       0.30866614       9.93572812       0.31069963      -0.84978654      -0.55613426
H       11.71953394      11.84961985       6.88180039       0.55532100       0.54574896       0.37753418
H        0.68571112       2.55764486       3.62533601       0.13177039      -1.18015871       0.21654014
H        5.50257861       0.55700624       5.94801743      -0.00332150       0.43958366       0.56306034
H        7.31243799       6.94042366       7.21481634       0.60014705       0.22250639       0.99184510
H        8.06296470       1.23778537       2.86730279       0.41898710      -0.79668407       0.61542229
H        0.21606636       8.00421386       7.00428568       0.16149327       0.04159327       0.22059822
H        2.69573490       9.41843713       2.85827271      -0.30628528       1.04408882       1.51881530
H        7.60743528       5.61725183       1.87438060       0.56534342      -0.50212568      -0.01941970
H        6.31372907      10.27308179       0.42062486      -0.98151309      -1.74799510      -1.91248463
H        0.43046767      11.05870808       8.69929045      -0.15071287      -0.60735902       0.79666538
H        2.98851273       1.15511335       6.54583586      -0.32801007      -0.21872844       0.44277154
H        8.59130456       2.29968366       6.83093835       1.24808082      -1.12808882       2.11869692
H       11.75438161      10.85913490       4.82064246      -0.13605864       0.41292527      -0.25614844
H        4.05921874      11.37498685       2.81675803      -0.84491385       0.29736380      -0.00641125
H        9.57939464       5.14364944       0.10003513       0.23768482       0.25505731      -1.16004975
H       11.69733249      11.48877894       2.62361747      -0.10550569      -0.00821729       0.20619040
H        0.83857933       4.71709655       2.63137953      -0.00844499       0.22049141      -0.26159284
H        4.51720201      10.41908876       5.60336073       0.36235103      -0.11161271      -0.13900139
H        5.42467866       4.39270808       5.00143923       0.08760014       0.11389785      -0.36784452
H       12.00075170       9.41221753       1.66095123       0.42700105      -1.77906736       1.02863231
H       10.07818308       5.26732186       5.97641326       1.96447884       0.41771744       1.34812018
H        8.60083305       3.38567313       2.53326966       0.50615473       0.91052224      -0.44374824
H        0.00708392       6.70155320       5.20403120      -0.32402019      -0.27242656      -0.51877717
H        3.70581912       5.69368038       7.86507196      -0.29163361       0.21746974       0.19869265
H        6.53280964      10.83155867       6.31712210      -0.01076540      -0.83027467       0.56823587
H       11.82481498       6.28604220      12.03055005      -0.59307020       0.00223326      -0.64816422
H       10.25671034       8.32088951       4.02999907      -1.32561220       0.23636703       1.22365835
H        5.85892143       8.47795307       0.96652745       0.25076016       0.08931227      -0.51906334
H        8.44038393       7.69304644       9.10012626      -0.16511974      -0.48237622       0.38077522
H        0.26729415       0.63555007      11.94657319      -0.16378643      -0.11389984      -0.39233918
H        2.62515572       2.17263301      10.89784569       1.03866690      -3.02990891       0.04876284
H        2.91303485      12.17171815      11.43311790      -0.15920628      -0.97387162       0.00511859
H       11.90726021       0.93772475       7.15313353      -0.46614177       1.32266740      -0.31901445
H        0.74773481       0.95591164       3.61442774       0.06358771       0.78640471       0.55430495
H        5.51244854       0.02725725       4.55830562      -0.70838810       0.43052632      -3.30479114
H        6.62636637       7.13355359       5.86037189      -0.53298694       0.10744498      -0.51286759
H        8.55261130       1.81401790       1.46356893      -1.08231625       0.28921372       1.35025289
H        0.26056518       9.12962900       5.91169483       0.41690803      -0.50523900       0.54992946
H        2.67537558      10.33098125       4.34575139      -0.11285867      -1.30475902      -2.48962973
H        6.29858594       6.44133329       1.81667820      -0.11472548      -0.05881842       0.12916278
H        5.97969639      11.59699282       1.19524798      -0.90759080       0.53422712       0.21541998
H        1.25608671       9.81268592       8.57492983      -0.21282891      -0.62831278       0.42979757
H        1.78942034       0.27801980       7.10958257      -0.31725896       0.30259286      -0.13590168
H        8.59254018       3.39860501       5.83976732       0.89443960       1.48074722      -0.44037981
H       10.77575581      10.12474817       5.79643699      -0.04891678       0.09470666      -0.03348576
H        6.50295429       1.72303707       0.91858326      -1.61906348      -0.09590722      -0.88829125
H        8.17350421      11.55010121       0.01967513      -1.06501134      -0.34214485      -0.11696808
H        8.13439341      11.96109263       4.10790663       0.22387833       0.22282800       0.39391350
H        6.45634075       8.82955319       4.25439329      -0.63507598      -0.47002656      -0.34559787
H        4.17700222       4.96563817       0.84349812      -0.97411423      -0.36906449      -0.34596246
H        6.49527558       4.12175501      10.34627277       0.45984002      -0.06597961      -0.43814898
H        3.56900211       5.98873452       4.90285659      -0.51314064       1.31234130      -0.19593069
H        5.85032422      12.08884511      10.05124878       0.00670051       0.28923023      -0.08532332
H        7.18505335      10.42323568       2.84707187       0.06191758       0.09504648      -0.12534101
H        3.15397527       6.14417971      11.80447011       0.90357546       0.87025258      -0.37583117
H       10.63705454      10.57393034      10.64480035      -0.34483463       0.22448132       0.30473878
H        0.28801590       7.49150897       2.90546162      -0.18068550       0.18532836       0.28569276
H       10.47713520       3.16155533       8.42629631       0.42527390      -0.27522518      -1.43890915
H        8.53806963       3.07057829       9.92039744      -0.86812457       0.06441154      -0.24023048
H        0.51187185       5.82060132       8.33455222       0.16787886       0.23739123      -0.21294418
H       11.79595272       4.16771077       4.19241938      -0.18728928       0.58328535       0.61844168
H        9.38681304      11.34801880       7.95787410      -0.07490630      -1.40834324      -0.70595965
H        9.59699340       8.30512137      10.95558618      -0.29140207       0.50389446       0.06735194
H        2.18214438       2.56703677       5.52736150      -0.78747115      -1.00817598      -1.42902969
H        4.00504244      10.01463358       9.06795935      -2.02872731      -1.01400206       0.05019981
H        3.17014880       9.11631818       7.32868765      -0.42204737      -0.47349881       1.54524243
H        7.21181269       8.71685447      11.22467304      -2.32396844       1.61361233       0.40435069
H        9.23264862       1.12480956       8.83734663       0.03140678      -0.00934434      -0.36506673
H        5.51655614       3.43547641       6.67528894      -0.40325667       0.50177396      -0.26486385
H        3.17179960       7.70041132       0.46599552      -0.71384260       0.96214838       0.18248717
H        0.34697844       2.84509585      11.69885259       0.47013284      -0.07772705      -1.54123615
H        1.52838914       3.76566634       8.87655649       0.04056815       0.11859689      -0.87795694
H        5.51852087       4.25257520       2.59125821       0.56393344      -1.91257144       1.11874576
H        1.17582452      10.81900291       0.48097920      -0.02178320      -0.50203416      -1.07915520
H        2.35619619       1.51858634       2.07633048       0.91712175       0.12126831      -0.56896006
H       10.56840555       1.70802030       0.50677757      -0.75854493       0.74760723      -0.24168901
H        6.81263611       6.69095744      10.93980238      -0.20917923      -0.14429052      -0.29260990
H       11.64017595       6.32924823       8.86672461       0.36042518       0.65536874      -0.70413699
H       11.13179557       3.87572981       2.82981632      -1.32338552       0.09348721      -0.79978763
H        8.38564404       9.92995987       3.76999614      -0.85617479       0.15161047       0.12763076
H        3.09228374       7.14644218      10.65507885      -0.23116690       0.45275672      -0.73756869
H       11.60428578       9.43837288      10.53963653      -0.08726310      -0.07406542       0.14347178
H        0.39678795       8.92100718       3.38958025       1.26970524       1.25158980       0.40827560
H       11.71307497       3.54338983       7.58458654      -0.63527279      -0.42291630      -0.06726386
H        9.56611817       2.67391807      10.99213776       0.09593774      -0.09915126      -0.50329832
H        7.80643762       0.65947739       8.84081807      -0.65216358      -0.19206725       0.17410073
H        6.16804617       2.43514252       7.54041245      -0.28906978      -0.31908845      -0.00879031
H       10.56389263      10.37593133       8.08291793      -0.14806807      -0.30305739      -0.13263956
H        8.95975140       6.88848107      11.16085458       0.05954291       0.47564896       0.07952089
H        3.34802642       3.30371795       6.16432085       0.06846172       0.33464510       0.18187164
H        5.31663393      10.15355139       8.63488717       1.79290219      -0.08916335      -1.46273361
H        3.56122366       7.86079564       8.15593227      -0.32324875       0.44018420       0.61087143
H        5.75223230       9.63760901      10.82096311       0.85596866      -0.84804693       0.15454595
H        9.52546381       0.77642796       0.00274968      -0.58566299      -0.47199840      -0.66644497
H        5.30775282       6.49841347      10.93453943      -0.56696715       0.25843649       0.14234953
H        2.61326400       9.09806624       0.89774058      -0.16513418       0.60841975      -0.81810177
H        0.88899065       3.04520054       0.61031861      -0.43702815       0.02024889      -0.00379137
H        1.43931823       3.94491896       7.22344493       0.76940416      -0.55254091       0.40779582
H        5.89445163       2.70700356       3.09687633       0.09626911       0.84593685      -0.46178931
H        1.44145178      10.30581393      11.39095721      -0.73154735       0.00084482      -0.19226258
H        3.40564523       2.59829464       2.10885875       0.23762166      -0.61414529      -0.65780609
H        2.56785374       7.25086665       5.05114075       0.14389227      -0.20007707       0.14650396
H        6.34730691       0.76702781      11.04300283      -0.34541576       0.11665124      -0.41579045
H        4.91408463       1.84333001       0.46655992       0.68223131      -0.24832320       0.13130039
H        8.50037568      11.79602839      10.92058730      -1.09390721       0.22419400      -0.81157086
H        8.52885148       1.02052356       4.65554494       0.07934874      -0.56532652       0.42854089
H        5.52116785       7.60621887       3.89497977      -0.87698858      -1.34842390      -2.50121251
H        2.60172646       4.97391306       1.12737981       0.31343329      -0.12702267       0.28270948
H        5.80186059       3.07411879       9.59263040      -1.68999062      -1.23225333      -0.60716711
O        4.60359083      12.16772669       2.92785427       0.68190459       1.74723281      -0.38402585
O        9.79204211       5.49620467      11.61246886      -0.22791476      -0.92731815       0.96846428
O       11.64621306      11.99127857       3.47419586       2.16675054      -0.67745590      -0.49581790
O        1.51904124       5.39057565       2.37364466      -0.93339913      -0.60055292      -0.45115471
O        3.55773050      10.32120295       5.65898333      -0.74587706       0.06806991       0.13817796
O        5.10410107       4.86655999       5.78864705      -0.62281304      -0.20536242      -0.06994220
O       11.91471917      10.28621063       1.33185996      -0.78094511       1.45632882      -0.97577835
O        9.37806814       5.09352434       5.38964099      -1.77496489      -0.43365393      -1.85865906
O        9.14443120       4.22679595       2.29099473      -0.07108045      -1.06436839      -0.83872299
O       12.23122371       5.76751780       5.45395338      -0.09544007       0.60308094      -1.49842202
O        3.97311046       6.23763175       8.63400110      -0.03034471      -0.98235668      -0.77855419
O        6.52664535      10.10229280       7.00468592      -0.26365007       1.42912520       0.16610854
O        0.26561590       6.69239674      11.89372237      -0.98393313       0.50047681      -1.00132538
O        9.47776561       8.64706886       4.60369788       1.78647831       0.55371658      -1.38174484
O        5.51065330       7.99311521       1.72472251       1.86059169      -0.31075268       0.45632613
O        8.51427649       7.69418764       8.12657089       0.17825285       0.17376901       0.31438559
O       12.00374068       0.40926995      11.29593026      -0.73832515      -0.78441230       2.00153855
O        2.21278465       2.99908259      10.83887038      -1.62624308       2.53608597      -1.00454761
O        2.90428409       0.50949664      10.86034675      -0.00607284       1.35309820       0.28943316
O       12.07037559       0.09348442       7.55151354       0.10868453      -1.69964206      -0.00124158
O        1.24792176       1.77047878       3.90197751      -0.15264344      -0.11474605      -0.73982913
O        5.66042134      12.19370425       5.42631380       0.88310326      -0.61415708       3.04172793
O        6.86108342       6.44241499       6.51475343       0.48742793       0.07816607      -0.62917201
O        7.84470386       1.95084180       2.25731897       0.67758010       0.45227370      -2.24090413
O        0.80638840       8.40880993       6.34415084      -0.10123818       0.22294796      -0.72739157
O        2.29054054      10.20783792       3.34337794       0.41535502      -0.36920045       0.55655538
O        6.66106059       5.53582770       2.00894752      -0.97698473       0.59272264      -0.21206776
O        6.65085105      10.97375859       0.93102000       2.25995464       1.88803611       2.20866038
O        0.57205197      10.19085190       9.17298614       0.35255929       1.08704701      -1.03942631
O        2.70694625       0.25742397       6.79525841       0.49463564      -0.21736629      -0.03480645
O        8.15436501       2.59574388       6.07251764      -2.17590342      -0.61280297      -2.00876955
O       11.68169507      10.48301553       5.72358104      -0.14146961      -0.09799206       0.14894174
O        3.12756121       6.75868413       4.42116407       0.35417352      -1.28096608       0.16623331
O        6.34153548       0.50789932      10.08752044       0.26190584      -0.50176283       0.16120655
O        5.81180234       1.56652470       0.18225957       1.03868441       0.22016158       0.89546990
O        8.86685692      11.63561227      11.77804001       1.82429439       0.19882434       0.96867754
O        8.84961859       0.22394734       4.16947980      -0.10663023       0.61713256      -0.27017842
O        5.82269318       8.13918677       4.57722067       1.73044096       2.13086010       3.12967287
O        3.29847116       4.68492416       0.47167476       0.76228725       0.51378530       0.22888359
O        6.67913041       3.36080070       9.74199633       1.44188173       1.57257920       1.08165487
O       12.34040194       6.60683211       8.22278692      -0.68804483      -0.78226988       1.27732644
O       11.88810064       3.68038012       3.36813846       1.33132930      -0.26230974       0.15594335
O        7.50083321      10.40362336       3.77692596       0.52609027      -0.60487827      -0.25138540
O        3.56546575       7.02347927      11.48109797      -0.47625552      -1.77115360       0.69368702
O       10.77974850       9.68959828      11.01015012       0.75317194      -0.40352044      -0.25293901
O       12.22347669       8.19037337       3.39237064      -0.78007111      -1.57453568      -0.73314089
O       10.83788773       3.07421068       7.47985712       0.40975241       0.62151400       1.63036497
O        9.49073745       3.08464919      10.08805600       0.62025795      -0.11070306       0.90467428
O        8.58006147       0.69494585       8.24705704       0.68509045       0.05448505       0.45736165
O        5.27662007       2.65672244       7.20630473       0.46824838      -0.90003248       0.49107132
O        9.67219060      10.40257687       7.68174522       0.04652734       1.55494758       1.02147444
O        8.72524449       7.84445381      10.96416092      -0.06143745      -0.65101345      -0.06085874
O        2.37717325       3.24446085       6.15588959       0.91401094       0.64056670       0.31956569
O        4.80923035      10.39346307       9.39182988       0.87234465       1.29167037       1.81121332
O        3.08446157       8.72914586       8.27567326       0.41075611       0.45651054      -2.35845424
O        6.30640739       9.19567429      11.54051363       1.40153580      -1.13108515      -0.79130423
O        9.59925301       1.72353089       0.25995520       1.43402059      -0.20768720       0.46453267
O        6.10806722       6.21206126      10.46801801       0.74944252      -0.30649839       0.21079246
O        2.89647738       8.25708104       1.26472511       0.15677399      -1.13814802       0.27472436
O        0.02688458       2.99707271       0.14672609      -0.11173193       0.19664399       1.94203680
O        1.11064601       4.22612508       8.10572629      -0.77053230       0.41252106       1.24358449
O        5.25188007       3.44254662       3.17263729      -0.45990781       1.02058296      -0.47009988
O        1.84295739      10.64179146      12.19814393       0.91033204       0.37749134       1.20672089
O        3.19324071       1.77952210       1.57559409      -1.24802008       0.74787744       1.60187574
192
Lattice="12.429 0.0 0.0 0.0 12.429 0.0 0.0 0.0 12.429" Properties=species:S:1:pos:R:3:forces:R:3 energy=-937.3312893010215 pbc="T T T"
H       10.44273296       8.01371984       4.08602144       0.46005265       0.09058496      -0.33578112
H        7.76177410       1.30900049       6.31244040       0.26826635       1.24164130       1.08012484
H        5.26850050       6.88454934       1.90781229       0.39645139      -1.20942174      -0.47186713
H        1.42895291      12.34443407       5.82879767       1.18214523      -0.07229136       1.93984598
H        3.40147019       9.31905517       4.05634745       0.34850460       0.32329520       0.91471907
H       12.06954183       2.67941682      11.25603682      -0.34612495      -0.81144199       0.90075293
H        8.07086546      11.31044756       7.24540482       0.18200065      -0.30645976       0.64904178
H        6.80213437       2.95117087       0.29330728       0.12968375      -0.51970164       0.95716463
H       10.45420969       3.55217196       1.37765128      -0.43118224      -0.01256801      -0.46586293
H        0.16993556       7.42717651       4.77438926      -1.04068186      -0.07236776      -0.46884222
H        4.43985247       5.99143366       4.39788173       0.40775316      -0.26120766       0.07206610
H        6.10903219       4.68002885       9.90407140       0.53609225      -0.99150342       0.25357484
H        7.89927021       7.23990698       5.18651335      -0.41384183       0.37257799      -0.75221116
H        2.87282377       9.58129028       7.85187936      -0.09298344       0.23283726      -0.00755716
H        1.91999747       7.83975849      10.08200609       0.99188857      -0.29988621      -0.69803462
H       10.82071842       8.75461757       7.32494793      -0.04365375      -0.29146946      -0.43369377
H        5.79737418      10.20835762       0.45500251      -0.02167237      -0.16316005       0.11002264
H        4.74025229       9.90172575      10.58411426       0.74348664       0.13275176       0.32253911
H        8.55596077       5.21894910      10.17776771       0.48244353       0.04477780      -1.76560023
H       10.44599679       1.86211433       6.15822799      -0.33306734      -0.04809216      -0.35160171
H        2.45399303       2.59420469       4.46977915       0.14769811      -0.64867312       0.29977851
H        2.94154957       5.81223887      10.41376304      -0.83315014       0.66380975       0.27117499
H        5.15940727       7.77104663       6.72777829       0.30711369      -0.19005271      -0.11212200
H       12.15048915       6.06137564      11.65223035       1.51391051      -0.75581017      -0.58087951
H        5.21552057       0.30703761       0.62022681       0.75099824      -0.16740981      -0.43754139
H        3.29473744       6.89344688       1.14330341      -0.56578094      -0.16192993      -0.02788483
H        3.06985201       0.63718629      10.39186620       0.72177275       0.19851087      -0.10880160
H        7.99773829       8.60846153       9.91487514      -0.52652453      -0.11760006      -0.27618663
H        6.01391654       8.14153972       3.72684705       0.16492976       0.48249150       0.59916387
H        7.10222070       5.92677841       6.64118831       0.65027547      -0.13712295       0.44005739
H        7.32998237       3.56582206       7.54887694      -0.29747728       0.28592033      -0.32740474
H        5.68580026       6.23629029      10.77551151      -1.10426333       0.31116215       0.44400401
H       10.52578715       6.50403912       4.15066088      -0.01993131      -0.93987261      -0.09117328
H        6.82430516       0.39736066       5.60649806      -0.92938814      -0.52906818      -0.19840372
H        5.73017985       8.34545056       1.52421802      -0.55040769      -0.46394066       0.99838154
H        1.30163558       0.20687450       7.36637453      -0.90372200       0.19329579       0.92513191
H        3.32101901      10.16138036       2.89417315       0.35993537       1.26963585       1.53034462
H        0.22459701       3.10480381      10.02228122       0.31325928       0.11179054      -1.32672765
H        9.05110821      10.23349531       7.73457068       0.36410853      -0.50342231       0.02938534
H        7.27962298       3.57987611       1.62362898      -0.38049201      -0.65856556       0.05857662
H       11.40514417       4.19792923       2.36588745       0.10309050       0.14417251       0.30742925
H        0.70449418       8.92301381       4.90004617      -0.01950379      -0.85995657       0.13224606
H        4.62771673       4.45324772       4.26526446      -0.03185057      -0.04342951       0.42573868
H        5.95454135       5.45608198       8.50927550      -0.28842016       0.17681467       1.19572832
H        8.99523253       6.13925817       5.52210466       0.57945803      -0.91203201      -0.83458701
H        2.82446723      11.06581801       7.25480074       0.69433569      -1.35200143       1.01547629
H        1.74028660       9.27909543       9.74798046       1.27108681      -0.78419517      -0.39137506
H        9.35109258       7.93580911       7.06255284       0.66341325       0.15513489      -0.26234446
H        6.94136722       9.30432703       0.07305018       0.32778918       0.06623599      -0.13512426
H        3.62053250       8.94046505      10.66913836      -0.00403010      -0.28390653       0.26473983
H        8.28462649       5.28034422       8.56992722       0.72999485       0.08560864       1.37756169
H       10.09608782       1.99671929       4.59560213      -0.76840824      -0.48071991      -0.52312479
H        3.93843983       2.06746920       4.03843348       0.13004060      -0.32395285      -0.30333998
H        2.20000663       6.05430629      11.74718535      -0.11583398       0.45266611      -0.55757048
H        4.71980716       8.45498806       7.93323718      -1.05233003       0.85922540       0.99364031
H       11.45829654       7.05487963       0.11327449       0.13198107      -0.40590486      -0.19305188
H        4.10866551       1.32863171       0.42966233      -0.19064371      -0.43221561       0.51059964
H        2.24932791       5.89382080       1.71942164      -0.14376596      -2.52632189       1.29874630
H        2.23727562       0.02182779      11.55533871      -0.08181545       0.01882877      -0.33146140
H        8.99115573       8.98220169      10.92630642      -0.12660465      -0.08154058       0.28014937
H        6.28862584       8.90916333       5.20129645      -0.21275626       0.02938430      -0.99877927
H        5.81553071       5.27973506       6.42631245      -0.94021321      -0.61800039      -0.49839427
H        8.58372484       3.08999853       8.27375395       0.20335692      -0.08597805       0.02194241
H        5.15665634       7.56876266      11.45886459      -0.18960321      -0.80495585       0.17714555
H        1.68754076      10.66405948       4.26884834       0.29369021       0.11003492      -0.73580679
H        3.12216012       7.51357355       3.03189460      -0.12763922      -0.22547915       1.31143188
H        1.53495570       1.47705320       1.01299416      -0.06615415       0.01564380       0.36091961
H        2.66917738       3.87238189       3.07014040       0.04161869       0.06481416       0.03131957
H        9.61165328      10.26402387       4.30234681       0.75446170       1.26898950       0.65598220
H        9.15586728       2.85048705      11.00369289       0.40032223      -0.19569022       0.08926863
H        4.35543002       1.28729785       8.83710025       0.65465146      -0.03521027       1.16987250
H        8.99335447      10.50938012       1.31121795       0.26083673       1.53153227       0.03112661
H       10.12651130       4.00760321       4.87873321      -0.02515637       0.12051242      -0.15312451
H        8.43233389       1.87374851       2.26390232       0.37823465      -0.50268565       0.22957979
H        1.18465415       1.37061918       3.68432023      -0.37210463      -0.32705124      -1.39408354
H        6.61435969       5.14979957       3.67822405       0.41416967      -0.31058422      -0.25003467
H        0.55436892       9.99463564      11.75627495      -0.03917240       0.01829918       0.20161538
H        2.15371816       2.90212302      11.66053132       0.26082602       0.07891078       1.11955649
H       10.98283282      11.49693385       1.99609761       0.08483218      -0.48098532      -0.32407780
H        9.80008271       8.85941318       1.98110931      -0.95783430      -0.28441224       0.47331076
H       10.96524497      12.13789853       4.74091199      -0.11467455      -0.57857333       0.31991352
H        0.01547378       9.15758566       1.54159411      -0.88665217       0.59489047      -0.01537792
H       11.84381830       0.42943459      10.77597154      -0.03596032       0.79910821       1.13227736
H        5.64895606       2.92547698      10.27275515      -0.97850356      -0.49778070      -0.00227303
H        3.30370836      11.44079517       1.09794280       0.22683929       0.85458132       0.27069363
H       10.35733678       4.77049570      12.08536860      -1.14702550      -0.27140095       0.03137525
H       10.33638152       8.30716687       9.09416492       0.58323996       0.02518083       1.64651587
H        3.88548380       0.35996818       6.78169568      -0.42010345      -0.51157441      -0.08245930
H        6.46533359      11.44877727      10.81569273      -0.60897327      -0.24012680      -0.36355628
H        8.12253382       6.82432516       0.65118302       0.85370799       1.78773166       0.05258805
H       12.24702780      11.42300209       9.12334550       0.44583543       0.89904465       0.05126759
H        0.47073506       8.84982031       8.33565547      -0.82377984       0.54484694      -0.94283386
H        6.04401589       1.86699527       2.70183314       0.30635117       0.73478938      -0.03617760
H        7.45059962       0.74939704      11.66265833      -0.71115625      -0.83479566       0.78782527
H        9.34018569       0.19974543       8.04846881       1.60453801       1.35066398       0.04600229
H        4.86660916      10.39417481       6.35028452       0.66144160       0.47732367       0.16267759
H        0.04495765      11.88591860       1.74664339      -0.53992328      -0.87810659       0.45351346
H       10.35747489       8.38764012       0.76432728      -0.53883471      -0.04568636      -0.57554779
H        8.97551630       4.57896093       3.94621148      -0.38047111       0.00838431      -0.16451576
H        8.17185013       1.02731518       3.52699938       0.29511107       0.13072472      -0.05620400
H        0.18856187       1.91037128       4.78443253       0.32839257      -0.12087270      -0.32653588
H        7.42649626       5.55760735       2.38864125       0.09113183      -0.72892060       0.68193170
H       12.03661436       9.18737620      10.79114664       0.75004621       1.67069633      -0.34338589
H        2.92972603       3.81904939       0.25979961       0.07481359      -0.18430672      -0.20392864
H       10.77572342       7.54376725      10.49351511      -0.06430022      -1.46589166       0.27871723
H        4.09748180       1.78097574       6.32072311       0.57084305      -0.67689583       0.61312147
H        9.54723138      12.33075233       5.26354911       0.53830657      -1.19896615       0.17052207
H        1.01315626       8.19081601       1.12545469      -0.75874076      -0.75308557      -0.62433982
H       10.57794991       0.89986939      11.48128544       0.73928665       0.19564007       0.61696340
H        7.11570341       2.80935090      10.48451557      -0.91263305       1.22001235       0.58267633
H        3.02268707      10.25940285       0.26063070       0.10240788      -0.54307312       0.02079856
H        8.81465727       4.82086184       0.04812971       0.04755504       0.17526192      -0.09146789
H       10.85890386       0.60886841       8.16005520       1.01556833      -0.53786874       0.27841001
H        4.96292667      10.90081635       4.94244707       0.74675399      -0.04720983       0.46454516
H        6.69833613      10.82041824       9.46145128       0.50438209      -0.37806383      -0.83017587
H        6.64948027       6.47189579       0.05536294      -0.28642955       0.31282776      -0.39262474
H        1.00343678      12.41685505       9.56057063      -1.60015819      -0.01512788      -0.36943003
H        0.51353312       8.61458436       6.85164545       0.05266569      -0.25641944      -0.87584308
H        5.21907355       0.72221873       2.66081086      -1.36459692      -1.76471041      -1.35389021
H        7.54254293      11.95775912       0.18946223       0.30312706      -0.09195292       0.20443299
H        5.13268341       0.37232902       9.80392764       0.32485080      -0.44305534      -0.01153488
H        8.91684919      12.08960405       1.84669617       0.24813493      -0.65548761      -0.19441365
H        0.14777386      10.76471641       3.60444666       1.30843213       0.16826723       0.66187341
H        2.29569078       7.44722778       4.43103537       0.56749821       0.19985351      -0.33304913
H        0.18475081       1.83794135       1.63860007       0.05430225       0.06510784       0.12565516
H        1.89721531       3.56817012       1.75820547      -0.00883529       1.00152080       1.10552529
H        8.58118387       9.17478275       4.19446073      -0.85293639      -0.31115867      -0.14390991
H        9.43339624       1.67767523       9.92352209      -0.29954360       0.33453426      -0.04622811
O       11.02198525       7.25442489       3.80916269       0.02355119       0.55690955       0.19746309
O        7.73601417       0.68839035       5.59470206       0.64831080      -0.71350874      -0.74979514
O        5.22466899       7.77663173       2.21594548       0.28889632       1.63549782      -0.62458228
O        1.93999294      12.32317244       6.73632587      -0.43063208      -0.20800774      -2.91794250
O        3.46426974      10.30887332       3.91386078      -0.65414578      -1.52808803      -2.57463286
O        0.22610247       3.37770510      10.93138042       0.30139263       0.79975980       0.39166681
O        8.54321132      10.99985815       8.06316898      -0.99083256       1.00434511      -0.75510738
O        7.04139573       2.69384826       1.23505351       0.02364169       1.42573057      -0.84283654
O       11.25636895       3.37624495       1.88324741       0.55702745      -0.36949130       0.22980895
O        0.83878161       7.96281003       5.22119076       1.04067881       1.13861706       0.10670541
O        5.10483914       5.26108455       4.55827145      -0.73186914       0.42944393      -0.29716436
O        5.64422186       5.40403281       9.48491354      -0.57142718       1.51454610      -1.82842694
O        8.36901735       6.76168655       5.88324524      -0.26649699       0.66578320       1.64113108
O        3.42295010      10.37938973       7.77456698      -0.69425821       0.99145678      -1.10691584
O        2.38198424       8.50846130       9.49003373      -2.45451746       1.18485858       1.27665602
O        9.86040154       8.62608512       7.55040685      -0.56306744       0.14138601       0.51874963
O        6.54220542       9.72825375       0.86138715      -0.20947024      -0.05667006      -0.31939814
O        4.37549633       9.25674705      11.23419043      -0.74285750       0.13481566      -0.38292974
O        8.99678347       5.19076389       9.26763936      -1.13348507      -0.01093757       0.39650352
O       10.73962149       2.18804285       5.27680057       1.03195594       0.50373054       0.83500993
O        3.42073258       2.80204394       4.40531219       0.35381783       1.24245407       0.25802843
O        2.10577433       6.22445459      10.77691564       0.86988564      -1.20006297       0.50309984
O        5.51185431       8.08880552       7.57490388       0.80648506      -0.63774393      -0.87728197
O       11.28962156       6.40535006      11.81829461      -1.21090641       0.54942819       0.81257302
O        4.32648759       0.50742767       0.93986164      -0.57063129       0.61033803      -0.49715188
O        2.34222731       6.74826620       1.34721702       0.92564172       2.80818561      -1.61964094
O        2.15722458       0.49573355      10.70657407      -0.67591073      -0.27456919       0.47459298
O        8.02225669       8.83338974      10.85340862       0.40666988       0.17404663       0.09060393
O        6.66979915       8.41346067       4.43237165       0.43112000      -0.32348000       0.45802773
O        6.52157484       5.24491794       7.07941041       0.41734203       0.36116932      -0.45959447
O        7.92101394       2.80431126       7.62925046      -0.05462811      -0.33365363       0.01818222
O        5.24093536       6.58368328      11.64568896       0.63964064       1.07970915      -0.18415420
O        4.61491314       1.19854089       9.82640447      -0.69493996       0.45175025      -1.67461512
O        9.31860174      11.45754892       1.18528676      -0.76277182      -0.54878540       0.15918887
O        0.73115667      10.70247997       4.44345216      -1.45963779      -0.32467487       0.12948302
O        3.22538385       7.47938819       4.02760902      -0.42998025      -0.04281441      -0.40825740
O        1.00757656       1.33318608       1.82299208      -0.30447368      -0.20596412      -0.40788938
O        2.07318917       4.30998268       2.42247973      -0.21951211      -0.96116902      -0.92489562
O        9.46613906       9.40927064       3.89703060      -0.17197430      -0.87864759      -0.66131342
O        8.90310028       1.94206786      10.71310212      -0.34418544      -0.21654936      -0.14147629
O       11.89919776      11.13624789       2.09740649       0.62441323       1.12034833      -0.32430726
O        9.45547046       8.51086946       1.12561110       1.21970027       0.22494633       0.31802498
O        9.83027219       4.78962634       4.36554662       0.51404001       0.05906936       0.57937755
O        8.88882888       1.24593841       2.88481192      -0.75396992       0.21922697       0.08467996
O        1.12199331       1.64355296       4.59413798      -0.60952863       0.34320479       1.58252259
O        7.42109753       4.88664380       3.14080358      -0.54037754       1.02860697      -0.80408512
O        0.25128535      10.00094667      10.83713699      -0.52786824      -1.35725968      -0.31286152
O        2.64309322       2.90010369       0.11496395      -0.06024931       0.02770767      -1.38236270
O       10.70945767       8.39303853      10.07273650      -0.64253463       1.24853151      -1.81059523
O        4.52606450       1.06721064       6.87852207      -0.01669659       1.65103432      -0.36552465
O       10.26811851      11.62732963       5.21155594      -0.59164143       1.69056340      -0.35598625
O        0.07501535       8.43554672       0.89354424       1.52303716       0.28097439       0.69368667
O       11.56258749       0.94508568      11.61283799      -0.82558179      -0.95342741      -1.42496325
O        6.32434568       3.41121022      10.76351671       2.37058403      -2.14917025       0.10605707
O        2.75067432      10.64552131       1.11524903      -0.25376164      -0.45548089      -0.42530756
O        9.53451325       4.20495303      12.22324416       0.72216829       0.27943129      -0.12648273
O       10.00215291       1.01359691       8.06556219      -2.24565258      -0.77743828      -0.11138704
O        5.54637159      10.80582025       5.74894268      -1.16897273      -0.49661013      -0.41377372
O        5.96761998      11.06103693      10.03241471       0.11105250       0.90416840       0.81735640
O        7.48731998       6.15451999       0.47766961      -0.12523669      -2.16569524       0.63836879
O        0.05880038      12.38955580       9.11142462       1.27531061      -0.93700228       0.37836748
O        0.05950916       9.19298541       7.48586753       0.55224171      -0.34032064       1.91392661
O        5.54758219       1.30033886       3.31035484       0.94090235       1.10070713       1.66501586
O        6.87872354       0.06965489      12.15098877       0.86527748       0.91144118      -0.89684160
192
Lattice="12.429 0.0 0.0 0.0 12.429 0.0 0.0 0.0 12.429" Properties=species:S:1:pos:R:3:forces:R:3 energy=-939.2810615097344 pbc="T T T"
H        4.36950717      10.95368738       0.44191883       0.03937954      -0.31881509       0.06385970
H        4.63806281       1.87092695      11.79782206       0.10042986      -0.42325937      -0.39167587
H        1.56915732       1.22215571       3.34380138       1.05509127      -2.04498064      -0.93799292
H        9.89482982       7.96951779       0.94120886      -0.46860406       0.30772689       0.49728276
H        2.45319063      10.57725200       5.23380778       1.53861659      -0.91014500       0.81113824
H        9.35937049       5.14129543       6.80539510       0.30223381       0.68672976      -0.94726981
H       11.28281130      11.07602058      10.51074929      -0.58135267      -3.13874508       0.57229717
H       10.38040911       2.29986949       3.42619294       0.48941990      -0.27521429       0.19675383
H        3.79931916       4.80654153       5.24259758      -0.47801854      -0.10695346      -0.50199105
H        1.09745374      10.20372933       1.75552583      -0.00032882       0.28002309      -0.34580143
H        0.59583254       9.28250199       8.23298715      -1.19086310       0.24535018      -0.57369162
H        8.97060457       9.13354315       3.35724991      -0.32892086       0.45117937       0.63912767
H        7.97908040       5.01722315      11.69260352       0.73889540       1.05719408      -1.21115774
H        6.84807664       5.27036728       1.26679963      -0.48350165      -0.17107145       0.20630040
H        2.44874668       5.67446961      12.24353323      -0.15945107       0.52052763      -0.44814479
H        4.96410116       9.41418106       6.13020708      -0.76406745       0.42685528      -1.13814320
H        7.93583114       1.93915560      10.28311948      -0.59924657      -0.12261073       0.20715550
H        9.09104014       3.97975418       8.52178711      -0.16663243       2.00631929       0.63477414
H        1.71062444       1.10301860      11.53371910      -0.62888150      -0.42471644      -0.19679010
H        9.82796836       1.87300880       8.60450128      -0.31435683      -1.17192930      -0.11655010
H        1.33638763       7.74881789       3.50662775       1.50094200      -0.27037394       0.21462446
H        7.84347226      12.28249661       1.65930250      -0.09271449      -0.25405921      -0.10822290
H        5.08210972       6.77941370       1.48174174       0.03910244       0.26209249       0.41530339
H        1.39165833       1.78816324       5.49379218      -0.19843299      -0.29497837      -0.73272631
H       11.20059946       8.85457777       6.97389501       0.00728191      -0.32955170      -0.22802895
H        1.88462166       0.15186549       1.22421692       0.02444807      -0.11196796      -0.47022255
H        1.62759641       3.79808644      12.23390985      -0.13590150      -1.44272440      -1.68297350
H        8.15913258      10.26734804      11.69826869       0.59220798       0.23114904      -1.01039614
H        2.00838000       8.05807411      11.43723115       0.44515308      -0.27743068       0.18917971
H        1.02576171       1.41222739       7.95770746      -1.14194458       0.84879472       1.23203906
H        6.88441024       2.70316011       5.20037741       0.26791804      -0.85450941      -0.38483746
H        7.89140623      10.50845596       9.37572991      -0.40540290       0.05105949      -0.60091977
H        3.06137322      11.41083925      12.19040353       0.99569908      -0.37204835      -0.52275641
H        4.85556976       1.26745608      10.27571623      -0.25512570      -1.15013653      -0.07103427
H        0.15399104       1.82487817       3.46321839      -0.37099837       0.07477652       0.20195257
H       10.88754857       6.85124815       0.80995017       1.09143459      -1.14817270       0.58938991
H        0.97551753      10.32645473       4.87212586       0.62437196       0.39014674       0.18101611
H       10.61423865       4.74347486       6.08121845       0.76413548      -0.71069618      -0.50967992
H       10.97438221       0.05585844      10.76799418      -0.08027499       0.20948074      -0.14974252
H       11.08326898       2.17564797       4.85875939       0.05902031      -0.40931015      -1.47163395
H        2.27161736       4.80915753       5.00872779      -0.65321260       0.14657790       0.67866788
H        0.76847390       9.32934850       0.49561647       0.39346737       0.00684493      -0.69778435
H        1.44289626       9.26434544       9.48823348       0.13239291      -0.18393618      -0.45502892
H        8.56220544       7.59335548       3.36305118       0.60349354       0.32876064      -0.28819720
H        7.43269234       3.65181986      12.09808974      -0.17289096      -1.01723756      -0.32470243
H        7.17011868       5.74357129       2.64572332       0.88844326       0.40199420       1.00137969
H        3.56671555       6.68901703       0.12319859       0.18193811       0.76497289       0.15110943
H        4.01589591       8.99393659       4.90720381       0.30290634       0.25669235       0.55335617
H        6.50806440       1.85276962      11.02298583       1.20923069      -0.00853133      -0.33405232
H        9.02813211       5.49015087       9.25368571      -0.06000558      -0.54021129       0.04996692
H        0.65686207      12.28863473      11.42823817      -0.35858298       0.17939370      -0.44019941
H       10.89150820       2.75418457       9.32788115       0.13578490       0.00348235       0.36767765
H        0.20186270       8.25164099       2.58685194       0.26568517      -1.05001987       1.01608847
H        8.96397792      11.22615670       1.59082733      -0.82841946       0.17977936      -0.17970073
H        5.15765546       8.26076937       1.23694525       0.46685488       0.77606235      -0.17715732
H        2.57687272       2.09293313       6.35148650       3.45831207       1.55046258       0.13501767
H       10.84131177      10.35311241       7.16632437       0.36145290      -0.06836248       0.10965505
H        3.00726981      11.88159927       2.10057189      -0.28168700       0.17867653      -0.01523119
H        1.95998677       4.20011854       1.20684911       0.66282092      -0.31436145       0.71604045
H        9.40268316       9.95812840      10.76326885       0.94903426      -0.58664689       0.06712240
H        2.55550116       9.56210214      11.48790016      -1.06527633      -1.17892981       0.16046656
H        0.28863509       0.73246132       9.14556890      -0.44725969      -0.87626055       0.57140233
H        6.56908659       1.18460272       4.85492423       0.95811180       0.38939908       0.35198851
H        6.41404753      10.73424903       9.08306649       0.39353181       0.32657901      -0.75039862
H        4.42201694      11.60320158      10.61016325       0.44020718       0.38123833      -1.13362514
H        7.04424331       3.60896583       8.64975396      -0.04993251      -0.62861808      -0.42888731
H       11.32284351      11.05560214       1.73620105      -0.43266035       1.00899032      -0.08276204
H        7.40893711       8.36976907       1.50055104      -0.17754402       1.15938154      -0.48518638
H        1.44567257       2.43575728       9.98729302       0.15001267       0.16803964       0.55411106
H        5.57987502       6.18232561       7.32875118      -2.33281857      -0.02440142       1.01294479
H        9.25661251      10.80031402       5.03479973      -0.34829347      -0.28383621       0.18776586
H        6.22927714       4.34250219       4.05983207      -0.11210705       0.00129003      -0.33998775
H        8.86167768       5.51444555       4.52207533       0.08717488       0.39485425      -1.12769693
H        0.49761400       5.87336879       5.97769931      -0.73405013       0.82379779      -0.09738637
H        8.92712912       0.92447204      12.15987347       0.50210923       0.31852284      -0.67457109
H        8.10159433       1.08954973       6.48966729      -0.32650243      -0.48291073      -0.53185061
H        9.81984828      12.08519650       6.76922550      -0.97457553       0.96113883       0.42426648
H        6.14493316       8.11790039      11.16749815      -0.70576637       0.48826836       0.88932538
H       12.02640603       7.74291205       4.80056793      -0.71118713      -1.11133279       1.90035273
H        0.06190698       4.86365299       1.23600501      -0.03106872       0.58321581      -0.38408365
H        6.43383718       8.04640366       6.76164029       0.27242579      -1.13920068      -0.14574963
H       10.83586726       8.95867604       9.59683008      -0.00292020      -0.20228416       0.18173875
H        2.49268758      10.74686277       8.00422206       0.64421663       0.64135380      -0.83878188
H        6.90558745      11.01189500       4.28173559       0.17080260       0.11883754       0.16613363
H        5.05792873      11.00915816       2.93122411      -0.16074761      -0.19953769      -0.31727129
H        9.41289404       6.50901191      11.59776509       0.92311742       0.77891163       1.00709927
H        7.74757663       1.77390358       3.20580855      -0.67805708      -0.05269812      -0.21106103
H        3.12066055       6.61374561       4.19267020       0.23614355      -0.03200380      -0.62262169
H        3.38592641       6.47189669       8.68232246       0.18503886       0.28719460      -0.70987772
H        9.16348021       4.09988801       1.14849946       0.40041409       0.14696650       0.39183018
H       11.09855426       3.08489047       7.14175419       0.67953926      -0.40640483      -1.27612839
H        2.13891256       3.05961159       2.92796266      -0.40220245      -0.50241026       0.46260288
H       10.75505922       2.82197272      11.92458043      -0.05007429      -0.06366987       0.01077605
H        5.65048403       1.63117307       1.36275730      -0.80585032       0.17359190       0.01160015
H        4.64890751       4.18004404      10.23362239       0.39073728      -1.34894880       0.44939528
H        4.82752648       3.20765720       7.86641784       0.89990805      -0.39554359       0.24831118
H       10.87750314       6.89510041       5.52265320      -0.67471719      -0.40388381       0.00444518
H       12.08644738       5.92289464       2.33063262       0.10257838       0.10799958      -0.08705399
H        9.19390420       4.99373200       3.09612187      -0.16197893       0.09372227      -0.35681377
H        1.77010709       5.92974432       6.81612410       0.47387512       0.37763139       0.34703548
H       10.17587632       0.50864317       0.47380745       0.39601563       0.24086371      -0.43494314
H        7.81973299      12.20882641       7.44389869       0.44257022       0.97204884      -0.05116318
H       11.08673182      12.38479759       5.94360758       0.31054246       0.23416360      -0.09126144
H        5.96411766       6.91265339      10.10060652       0.64105413       1.13474029       1.03411056
H        8.28372449       2.49174091       1.98368549      -1.47269268      -1.12064776       0.10411835
H        3.51708009       7.48883799       2.84109144       0.21494543      -0.34538984       0.21392384
H        6.82578584       9.41952512       7.17707749       0.38237094       0.61441105       0.35077965
H       10.70303571       8.57040897      11.20686035       0.50483492      -0.01408012      -0.78983313
H        2.66265619      12.15410630       7.25203111       0.24114207      -0.91344522       0.07602198
H        5.42155271      10.86614055       4.76412361       0.41860305       0.51358899       0.13971268
H        3.93203745      10.00396882       3.00891482      -1.00114794      -1.03708060       1.04099616
H        8.10648049       6.89613930      10.80507300       0.44863893      -0.38553288       0.06143719
H        4.02303335       5.49376790      10.71625325      -0.63267894       0.38310409       0.75245116
H        3.62784043       4.11295194       7.99850793       0.01608980      -0.09864720      -0.11146436
H        3.40073930       7.65571834       7.67668033      -0.58923976       1.81725924       0.09140623
H       10.57387283       4.47174755       1.82324731       0.16327016       0.11414811      -0.26758881
H       12.42313661       3.30973788       6.26262576       0.27148475      -0.01390501       0.28370956
H        3.26948575       4.12107547       2.91619054      -0.16680412      -0.09943781       0.30240275
H       11.39310250       4.25650065      11.74334171      -0.10973614      -0.47485406      -0.12674139
H        4.25918153       2.37699629       1.60870951       0.26380222      -0.79317859      -0.31167188
H        8.24463359       9.62922386       5.38022469      -0.22589542      -0.37650517       0.67373480
H        6.01059525       4.75673121       5.48177369       0.40851102       1.80937217       1.71952575
H        3.94533186      12.02162418       9.12588967       0.55714702      -0.52972050      -0.07020761
H        7.14100155       2.31458447       7.72256668       0.05788043       0.19471574       0.21469565
H       10.85525831      12.23497841       2.65184294       0.51738253       1.08239424       2.25560052
H        6.90553123       9.82482335       1.11466214       0.43532173       0.48683995       0.58072246
H        2.89157597       2.56522555      10.61675535       0.48916038       0.02856094      -0.17834381
H        6.99313904       5.74535928       7.50793395       1.17001717      -0.58317520       0.89018442
O        3.92196511      10.90395990      12.00438949      -1.53161610       0.65187252       0.52720925
O        4.80541492       2.06553771      10.82924974      -0.06120806       1.53139946       0.64503286
O        1.09696754       1.94088472       3.71810402       0.04503258       1.79467260       0.81096266
O       10.40060448       7.47399481       0.28622180      -0.73071714       1.02409445      -0.91839030
O        1.66147649      11.02017005       4.98910986      -2.32620627       0.53571366      -0.81936243
O        9.83216307       5.28115830       5.91669492      -1.51434977       0.28566165       1.64218268
O       11.55242118      11.90820255      10.21970715       0.67162219       3.19780508      -0.31112475
O       11.05812875       1.76211786       3.90259263      -1.39461561       0.67260240       1.04264601
O        3.10538218       5.04277348       4.57817068       1.61262673      -0.35465185      -0.05587582
O        0.36887622       9.78161559       1.25873890      -0.60546109      -0.00146122       1.37782593
O        1.51076411       9.21322633       8.49810601       1.09419295       0.01874695       1.12753911
O        8.82814805       8.35897289       2.80018038      -0.03595868      -1.01131667      -0.86023149
O        7.69512489       4.50644504       0.01720829      -0.32229783      -0.61897668       1.53478811
O        6.39868257       5.58704153       2.09898064      -0.81317463      -0.28221552      -1.06021876
O        2.95551975       6.44747054      11.83345394      -0.12226787      -0.71743050      -0.12642481
O        4.24876611       9.76599722       5.49216292       0.24652391      -1.13248399      -0.03835421
O        7.51521202       1.76995985      11.14730731      -0.77973689       0.41781151       0.22199748
O        8.66701520       4.93315286       8.51650310       0.13053768      -1.47805401      -0.71507724
O        1.48801406       0.17247091      11.81486668       1.12059789       0.12367007       0.66666723
O       10.24678936       2.72805055       8.59883282      -0.09504927       1.02196254      -0.27775574
O        0.41643375       7.54390177       3.30172078      -1.90683921       1.41586061      -1.60673815
O        7.99839560      11.35488858       1.37174174       0.56349107       0.45683793       0.35996503
O        4.49306937       7.57194821       1.36776710      -0.13406716      -1.23219147       0.05023475
O        1.73312080       1.75363236       6.40151624      -2.89579926      -1.34789223       0.70573094
O       11.10214229       9.53895353       7.65849933       0.02203913      -0.32624902       0.38565348
O        2.07215504      12.18259017       2.09074623       0.02051949      -0.14963515       0.63689262
O        1.49069551       4.51487517       0.40725724      -0.62589563       1.33153358       0.80622521
O        8.61901001      10.50463049      10.84405926      -1.60998796       0.60189595       1.09449846
O        1.71704704       8.98929341      11.44626981       0.88689819       1.23701668      -0.29551399
O        0.45049272       1.60896025       8.79837691       1.55904635       0.15706273      -1.78424558
O        7.34069670       1.79790565       5.05736498      -1.20134543       0.09205398       0.11457499
O        7.26442550      10.61404986       8.57847780      -0.43052127      -0.06741281       0.79641614
O        8.50805432      10.25070970       4.69666844       0.83065365       0.75807378      -0.69396853
O        5.89653514       4.02220520       4.91575771      -0.15737074      -1.49681831      -1.45068802
O        4.74512831      11.97251744       9.71355291      -0.38923172       0.08590304       0.93292497
O        6.62944526       2.73751887       8.43412314      -0.03996975       0.52650110       0.31029704
O       10.70350360      11.84628396       1.82304202       0.29609045      -2.21401526      -2.06955000
O        6.95552868       8.91791871       0.79448897      -0.33023727      -1.55112402      -0.27915763
O        1.95446681       2.71138975      10.81726712      -0.44990349      -0.24912761      -0.40728997
O        6.40300207       6.15287127       6.88942579       0.91143331       0.38728261      -1.76015446
O       11.67854245       7.38108052       5.73972873       1.36928214       1.44994165      -1.79527692
O       11.73693598       5.44847832       1.54401676       0.51080315      -0.13575967       0.54079096
O        8.74470358       5.75369834       3.54208047      -0.28222598      -0.38434305       1.62580505
O        1.20443179       5.32402698       6.32774799      -0.15164640      -1.15446673       0.10341916
O        9.91106261       1.03663400      12.10720081      -0.47709636      -0.49077076       0.92822074
O        8.44372446       0.54559253       7.23350817      -0.26221349      -0.63305787       1.00476061
O       10.49807854      11.67662396       6.21806873       0.67615428      -0.86391393      -0.84451110
O        6.59330852       7.56714434      10.54032167      -0.12449213      -1.67254366      -1.92480666
O        7.50902122       1.88299940       2.24692587       2.06145028       0.94679523       0.00655620
O        3.07511993       7.49174624       3.72279825      -0.21519038       1.18089398       0.43353264
O        6.64992498       8.89698122       6.36752846      -0.10780857       0.58664310       0.24360736
O       10.96937729       9.24126870      10.52516857      -0.14987103      -0.23111544       0.51900263
O        3.17480348      11.36780292       7.57616897      -1.29945613       0.46946647       0.71884163
O        6.07462545      11.52326997       4.37493234      -0.74602768      -0.17080137      -0.18802785
O        4.40416988      10.49821576       2.36827508       1.39191769       1.47305035      -0.86637889
O        8.86829350       6.23615222      10.86625807      -1.29777334      -0.08541787      -1.45313989
O        4.34808556       5.02670076       9.93525716       0.33975720       0.94601111      -1.18902242
O        4.06327329       3.50871140       7.37067056      -1.01292356       0.40975756      -0.37752514
O        3.55392825       6.73204679       7.74421605       0.28513366      -1.97724079       0.50365380
O        9.75733183       3.91554011       1.92860443      -0.95079513      -0.81402206      -0.24585409
O       11.46787599       3.16355330       6.18078053      -0.66707405      -0.02179130       1.24718526
O        2.83137909       3.44473491       2.35838414       0.87305153       0.56460882      -0.57734273
O       11.35202116       3.35779338      11.36493717       0.06671325       0.39364140      -0.15035096
O        4.68711393       1.61884216       1.11430791       0.49569459       0.56774973       0.34683270
192
Lattice="12.429 0.0 0.0 0.0 12.429 0.0 0.0 0.0 12.429" Properties=species:S:1:pos:R:3:forces:R:3 energy=-938.8798292039504 pbc="T T T"
H        5.32173844       9.89698909      10.73187338       1.48185617      -0.51791885       0.47210842
H        4.25349787       3.12763061      12.27886559      -0.50440702      -0.45478262      -0.22705435
H        0.40758661       0.70359188       3.34329411       0.81907759       0.10252162      -0.16400454
H        9.73287752       8.15970530       0.81951263       0.65739059      -1.47436770      -1.01657595
H       11.82046997       9.11783287       6.28358290      -0.14128780      -0.79679739       0.24357322
H        8.42985877       5.11968702       6.21792869      -0.10103302       0.64193268      -1.32499808
H        0.78230523      11.12838116      10.69164199       0.13330946       0.07536789      -0.20230702
H        8.86806395       2.65204278       3.20127851       0.22749250      -0.94403800      -0.17257867
H        2.68009260       5.57454262       4.58950004      -1.02563526      -1.56854829       0.27804007
H        0.93387634      10.77491735       2.20540333      -0.39931148       0.15546067       0.27483338
H        0.15578823       8.86661269       9.81566030      -0.62663061      -0.16028049       0.13096626
H        8.61496576      10.00348080       1.58670273       0.07295144       0.71722717       0.67488417
H        7.84373992       4.29765644      11.52856432       0.78874522       1.24237302      -0.80386703
H        5.80465397       4.24093555       2.00629823       0.05110055       0.29752235       0.46115033
H        1.45360042       5.62966984       0.07639568      -0.21892346      -0.56735045       0.26484077
H        3.08398289      10.41305347       6.01968275      -0.06581241       0.35308071       0.59061100
H        8.04710341       1.47068653       9.91782605       2.75992396       0.38059521      -3.42294114
H        7.77631403       3.72730376       7.91506239       0.75450302      -0.50582629       0.33642507
H        3.35691341       0.51813336       0.38612725      -0.18649392      -0.07704794      -0.09921519
H        9.23524509       1.85264554       7.89179290       0.01263144      -1.74253286      -1.50806709
H        1.07124299       8.04439423       4.14074491      -0.85596216       0.24579598      -0.72646273
H        6.68223763       0.70478003      12.38622573      -0.28425874      -1.09445389       0.56559756
H        4.71096480       6.50539154       2.07375017      -1.17517077       0.07555011       0.20619205
H        0.40181749       0.97608721       5.66683717       0.61310769      -0.10244488       0.41836472
H        9.97166351       7.63787070       7.36780412       0.69298906      -0.33165246      -1.38059230
H        2.76731209      12.39152115       2.92634971      -1.22002230      -0.20263972      -0.13975506
H        0.78247616       3.97362097      11.15624215      -0.03657320      -0.06377062       0.84414789
H        9.76323673      11.97539212      10.78306959      -0.15054253       0.52037273       0.12959679
H        2.08180789       8.21699516      11.98239436       0.06539519      -1.21691674       0.35201134
H       11.99392224       1.18683810       8.27303751       0.15381540       0.90604617      -0.34304258
H        6.30274020       1.57238933       5.11725399      -0.06508000       0.38417070       0.45078005
H        8.11828142      10.77695661       9.14590660      -1.05032795      -0.00945178      -1.28794167
H        4.54769335      11.03615540      11.43588344      -0.05266732       0.13456158       0.31412035
H        4.68289470       2.74179674      10.75532655      -0.09945382      -0.41215597      -0.18845544
H       11.55730775       1.08393832       3.87829960      -1.68625565      -0.41260990       0.25915468
H       10.87310153       6.91532900       0.55125513      -1.50139391       1.43296308      -0.15056465
H        0.54123521      10.15928447       6.53626892       0.58903867      -0.01090663       0.67840705
H        9.22235802       4.40316636       5.17335252       0.13295404       0.61195110      -0.48874604
H       12.42705365      12.34904359      11.17870257       0.91761053      -0.15897012      -0.14160133
H        8.18406141       1.45554273       3.93298026       0.59365718      -0.01409417      -0.46423591
H        1.43777277       5.14716517       5.37904450      -0.80683476      -0.14922465       0.54311259
H        1.37107854       9.91368678       1.11665880      -0.88091446      -0.61516920       0.01180165
H        1.61326206       9.04450375      10.40294778      -0.93431013      -0.40891846      -1.01543547
H        7.97788638       8.62986219       2.16977335       0.23387319       0.11889557       0.52927754
H        6.39667304       3.83323164      11.89056469       0.39509183      -0.25188594       0.04823925
H        6.45671608       5.40784901       2.78593135      -0.44862810      -0.43716304       0.23638768
H        2.64804026       6.40678328       0.90901264      -0.47215507      -0.28076378      -0.60813795
H        3.39277047       9.44423641       4.92191478       0.30673439       0.37890630      -0.13118492
H        7.61006995       2.14466047      11.13199943      -0.38549339      -0.28884153      -0.03525057
H        6.91959159       5.04289127       8.07107652       0.16834074      -0.48581768      -0.43557599
H        2.42577039      11.93717560      12.07897050       0.84186967       0.20633906       0.56221609
H        9.87985448       2.96883811       8.59959853       1.21706402       0.58931020       0.47701849
H        0.27620163       8.95186107       3.07870780       0.30460811       0.30176890      -0.58939050
H        6.45152343      11.73748580       0.84589966       0.20354882       1.25463294      -0.66356267
H        4.28167026       7.83835700       1.45725087      -0.51042150       0.15640434       0.44460830
H        1.45703102       1.75080417       6.57014898      -0.30890235      -0.99897544      -0.03214532
H        8.57617506       8.29322408       7.66996386       1.26828671      -0.58192865       0.60998645
H        2.16177110      11.69187095       4.05655038      -0.00777623      -0.71784149       1.34721864
H        1.21914943       3.29896494       0.14209428      -0.07041547      -0.03304028      -0.31853558
H        9.91498544      10.60030415      10.19330577      -0.12240991      -0.18688989      -0.01660467
H        3.11168982       9.35556608      11.56748748      -0.47160748      -0.05555461       0.39762448
H        0.00296755       1.39573370       9.64221063       0.01534029       0.66903592      -0.01045923
H        6.38741728       0.03548174       4.77101842      -0.01223491      -0.29854781      -0.21232259
H        6.80750246      11.07370238       8.20267586       0.88177018      -0.60403484       0.71626661
H        4.65790856      11.29654889       9.30247302      -0.21519924      -0.29319665       0.49821869
H        5.84312526       2.99494339       8.76853464      -0.57581256      -0.80506904      -0.26181033
H        9.56616348      12.21041320       2.39368315      -0.42173703      -0.47796953      -1.08718997
H        7.23937190       9.26091009      12.32179740       0.12523165       0.05665201       0.59571395
H        0.59655585       3.58555884       8.87416341       0.60788596      -0.00590662      -0.13683223
H        3.90779175       6.25456709       6.85485058      -0.42595680       0.06369809       0.15455721
H        9.17620329      10.18336743       4.36709434       0.19620063      -0.26873057       0.29954108
H        5.40051447       3.68812575       4.46531826       0.45565515       0.45130419       0.21961002
H        8.08018076       6.23715084       3.73421859      -0.02675638       0.20671861      -0.90093064
H       12.01637760       6.01406252       6.48932770       0.46585586      -1.26183016      -0.12937396
H       10.67203245       1.18388786      12.11166477      -0.08356860       1.32749800       0.13986050
H        8.01002244       0.22199836       6.44104210       1.19690065       0.32609721       0.10914494
H       10.44055867      12.27757448       5.27138987      -0.13229762      -0.39472702       0.13185720
H        6.65670340       7.89524886      10.38285275       0.73157978       1.34751717       0.76876038
H       11.25683657       7.72027594       4.67542542      -0.23931255      -0.08077698       0.34243650
H        0.08791721       5.35364680       2.12427581      -1.15929672       0.81688635       0.07292913
H        6.29466703       7.87188882       8.13443371       0.06427507      -0.07383357       0.42932144
H       10.31089495       8.44419994       9.53440209      -0.53283683      -0.46453638      -0.43152972
H        1.63192324      10.49726192       8.49813706       0.31877736      -0.13912047      -1.27604354
H        6.81510576      10.14497584       4.32454346      -0.35255980       0.24565380      -0.33655500
H        4.40909003      10.58110347       1.44181589       0.41905058      -1.06967504      -0.09066906
H        9.11298401       6.33630092      11.46702397      -0.26966297      -1.05276937      -1.02861448
H        5.17259812       0.69838278       2.31588350       0.38671247      -0.29852635      -0.39849768
H        3.54943562       7.35272144       5.00192940       0.17962882      -0.30500599       0.25905459
H        3.24097664       6.17932536       8.97893297      -1.30061158       0.72433651      -0.52498658
H        9.68039881       3.89899169       1.42545541      -0.17433151      -0.26085711      -0.28176050
H       11.38010088       2.89002066       5.26333725       1.15785898      -0.48326769      -0.72892443
H        0.79964569       3.07248366       2.66050931      -1.09425685      -1.38638381       0.31385139
H       11.46154405       3.41614675      12.25303401      -0.06414701      -0.24682803       0.25507221
H        3.74191606       2.21230431       1.69413300      -0.89964331      -0.00708059      -0.45063451
H        4.40273686       4.95825137      10.55437667       0.03781870      -0.71993321       0.48015345
H        3.46600608       3.02448222       7.64436772       0.09298696      -0.19720842       0.09412456
H       10.02794809       6.78229106       4.98344787      -0.49911408      -0.91908000      -0.13466594
H       12.07433252       6.73323865       2.73894160       0.63463051       1.19373706       0.80682964
H        8.35325211       5.88272287       2.24323761       0.16826096       0.01974330       0.20989692
H        0.61174229       5.48147080       7.50291202      -0.22959872      -0.70563457      -0.70076307
H       10.51152933      12.14553494       0.20192650       1.12972763       1.13296703      -0.84618987
H        9.05724715      11.90728397       7.35797846      -0.20904151       0.30423051      -0.29696437
H       11.44391636      11.13677106       4.90304002       0.69733552      -0.97599681       0.99564170
H        5.68233532       6.82424565      10.20887547      -2.58947595      -1.49766105       1.05210640
H        4.80001122       1.41685451       3.60483345      -0.05090075       0.13361997       0.45818299
H        3.22877748       7.66144598       3.50566034       0.53238575      -0.25375398      -1.09450050
H        6.49855406       9.01715996       7.12404754      -0.06573999      -0.38869059       0.08936302
H       10.64642041       8.49915568      11.10662516      -0.03114937      -0.28702089      -0.46787056
H        1.65568570      11.76977020       7.52724177       0.31162289      -1.45523268      -0.22924563
H        5.32562462      10.61679891       4.70703534       0.46750630      -0.28804795      -0.94980562
H        5.43894292       9.86514337       2.44133303      -1.10580950      -0.01072818      -2.14586732
H        8.30920611       6.00871169      10.12154030       0.29532346       0.13693029       0.41050004
H        3.39887601       6.02182249      11.23707616       0.52623296      -0.64888578      -1.13544343
H        2.95856041       3.65859438       6.33444379      -0.12495812       0.03574526      -0.11557485
H        1.96637805       7.15877275       8.51636867       0.94950982      -0.35534463       0.26921831
H       10.19869417       4.92013407       2.39070401       0.41262668       0.28588853       0.26067766
H       11.03227841       3.86647637       6.41319450      -0.09093958      -0.70357494      -1.09605452
H        1.64220055       4.19194096       3.19733174      -0.63312078      -0.02030955      -0.74800806
H       10.06639740       3.46128226      11.69440440      -1.65592863       1.32137030      -1.94766053
H        2.52715043       3.23193668       1.42440998       0.79566379      -1.55584987      -0.39249767
H        8.85094517       8.73038469       4.97359578       0.16038822       0.96436814      -0.57427675
H        6.08376285       3.69308009       5.89849564       0.38312531       0.79013979       0.53486395
H        4.36423371      11.31462958       7.78401905       0.06260922       0.39960063       0.49288257
H        5.16225480       1.56512675       8.52838091       0.25850271      -0.22104170       0.10434942
H        8.62662792       0.24707567       1.23240619       0.85968875      -2.11140423       0.90449031
H        7.76746962       9.94310107      11.02012363      -0.98205266      -0.28536792       0.60441753
H        1.57870304       4.84861664       9.28080137       0.44839680      -0.21562638      -0.75280630
H        5.18904677       7.03441664       6.51687657      -0.00258018      -0.05379471      -0.27896665
O        4.49284763      10.35934543      10.74157346      -1.75152913       0.25672677      -0.48487551
O        4.93014108       3.20327519      11.57397500       0.10568904       0.79572345      -0.06780661
O       12.33139819       1.51281418       3.54257165       1.01014815       0.79350776      -0.27869108
O       10.13438847       7.50444336       0.13467982       0.67939103      -0.02021856       1.18625985
O       12.12712702       9.99579079       6.09408493      -0.52968923       0.80587318      -0.73740963
O        8.75059980       5.27452100       5.27241654      -0.17111374      -0.99266401       1.48592835
O        0.86834997      12.09986364      10.70490278      -0.80418947      -0.08990452       0.51603140
O        8.86418881       1.65364333       3.23711624      -0.68835305       0.96585598       0.71811471
O        2.09181966       4.75694408       4.78078600       1.99297916       1.51445167      -1.07981394
O        0.57080578      10.00973681       1.70257211       1.14866884       0.65879636      -0.30424331
O        1.09146406       8.81720498       9.55098050       1.36388269       0.51309957       0.23868096
O        8.15244669       9.18204272       1.39587012      -0.04825972      -0.86366475      -1.07425406
O        7.33506231       3.87780322      12.20949427      -0.83118777      -1.07723795       1.12834704
O        5.66372127       4.78454221       2.81613715       0.40619622       0.26197552      -0.91657215
O        2.17863040       6.27091844       0.03215899       1.01583465       1.03309806       0.06490448
O        3.68643720      10.33029623       5.26296474      -0.61310478      -0.63582492      -0.18441855
O        7.47050528       1.32288610      10.59592934      -2.42278676       0.10018233       3.76048636
O        7.09019399       4.26634639       7.48924963      -0.75051068       1.13377060       0.27824388
O        3.25984374      11.99441181       0.21032194      -0.76671575      -0.05753649      -0.53225587
O        9.02819043       2.58636472       8.44534499      -1.21612905       1.08255744       1.02188902
O        0.20300816       8.16361644       3.64736362       0.44204961      -0.90092715       1.28292363
O        6.49913531       0.30745711       0.85093743      -0.15195399      -0.32824591       0.09629102
O        3.88650118       7.06942473       1.95030749       1.79429576      -0.05855737      -0.54479146
O        0.99611715       0.85962083       6.44818641      -0.04476213       1.04222545      -0.26310856
O        9.41372909       7.90683176       8.07914843      -2.03985118       0.78752711       0.75072339
O        1.87291322      12.01904726       3.21291600       1.29556674       0.74759210      -1.09643505
O        0.65462278       3.98014492      12.17686791      -0.21345323       0.13857654      -1.42511059
O        9.23549440      11.30771686      10.30540216       0.51248774      -0.82789834      -0.16850410
O        2.19085940       9.16574863      11.91654395       0.91819147       1.23018679      -0.31939700
O       12.09540343       1.94668345       8.89697215      -0.19429948      -1.57445650       0.16941824
O        6.76104050       0.73026386       5.33632103       0.09581963      -0.28029528      -0.20107199
O        7.55473835      10.42118606       8.36953055      -0.11936291       0.98783606       0.35903311
O        8.53455395       9.44692211       4.36409281      -0.18730811      -0.47576750       0.38612415
O        5.66763192       3.14944148       5.23365904      -0.93361154      -1.07186528      -0.95176380
O        4.81064600      11.82260616       8.49658422       0.25374405       0.19755382      -1.37741790
O        5.02456405       2.45496147       8.89330374      -0.05568124       0.84735280       0.02782494
O        9.18508478      11.84780579       1.53293891      -0.22007225       2.32034592       0.26868283
O        6.94783106       9.54454126      11.43539252       1.06176115       0.15777774      -1.24155387
O        0.78815542       4.33330899       9.47164877      -0.85178557       0.20542092       1.20097878
O        4.54446663       6.38540195       6.13110331       0.19590453       0.12591460      -0.19872661
O       10.62881402       7.40585702       5.39253444       0.99302271       0.88208437       0.09009771
O       11.77216764       6.04635393       2.15204188       0.33281729      -2.19447796      -1.21065329
O        7.91420384       6.57037830       2.80300734      -0.37558218      -0.27902240       0.80856565
O        0.12466735       5.17663772       6.68495824      -0.47062311       2.27399137       0.65425045
O       11.03939694       0.31006915      11.95776866      -1.19048645      -2.34908426       1.02595152
O        8.97303609       0.25351339       6.75837110      -0.55774121      -0.54077989       0.27305310
O       10.90980921      11.83474425       4.53624106      -1.28830370       1.18026494      -0.98254992
O        6.39150088       7.21846121       9.76759516       1.89539623       0.16973868      -1.78533984
O        4.42465416       0.85200290       2.92049933      -0.02183996       0.30330616      -0.20715230
O        2.83976973       7.65514153       4.38225522      -0.49368524       0.47759677       1.18728890
O        6.39941300       8.04485351       7.17693501       0.23781652       0.51070666      -0.49644377
O       10.87015558       8.85640379      10.20682271       0.41106644       0.88535112       0.95968703
O        1.87787284      10.77589564       7.55816502      -0.43964259       1.49511608       1.16179436
O        6.01215858      10.61809284       3.96661851       0.04519222      -0.12678705       1.09312591
O        4.97870315       9.75932017       1.48266427       0.53405395       1.11965658       2.21708693
O        8.88954576       5.59573666      10.79589302       0.29675729       1.02788025       0.43677893
O        3.96853975       5.80313424      10.39650432      -0.56977241       1.10558610       1.06581911
O        2.65724262       3.17177229       7.12095155      -0.05810493      -0.02730261       0.05352273
O        2.57680028       6.42595867       8.22982230       0.05463467      -0.11647587       0.42947862
O        9.39589702       4.40115679       2.21155406      -0.04405606      -0.14234843       0.02836274
O       10.64255880       3.30399952       5.68036902      -0.94755543       1.05166755       1.71482381
O        1.18008416       3.87971299       2.33241216       1.72297286       1.47582429       1.07238148
O       10.55316355       3.00706886      12.33354369       1.43577783      -0.96050529       1.69010554
O        3.08767399       2.46457068       0.97725384       0.02971431       1.56844285       1.28839047
192
Lattice="12.429 0.0 0.0 0.0 12.429 0.0 0.0 0.0 12.429" Properties=species:S:1:pos:R:3:forces:R:3 energy=-937.4720312653565 pbc="T T T"
H        4.43287436       6.28920531       0.48442777      -0.45698090       0.51137123      -0.22615685
H        4.52986659      10.56179026       5.19281064      -0.24473038       0.70210461      -0.23406868
H        4.05145487       7.81889470       6.30356870      -0.11212116      -1.45685639       0.64820829
H        3.60343114       1.49941287       7.23852166       0.32515498       0.10040884       0.49014270
H        7.35451421       8.55893965       0.17755131      -0.25234731       0.04001346      -0.06734691
H        2.21485321       8.83261815       3.90495209      -0.14440483       0.52498937       0.30242615
H        5.53907163       5.76875967       6.57443458      -1.69674340       1.14311558      -0.49271311
H        7.86130871       2.29824147      11.18952121       0.23957404       0.55129963      -0.02088500
H        1.34870454      10.30287911       6.01827448      -0.55812832      -0.38600147       0.45585363
H        2.00617294       2.61896646       7.81890839      -0.66117596      -0.51869362       0.22407712
H        2.75757301       7.59950973       0.59898949       1.44983439       0.77178651      -0.86671069
H        9.78814138       7.39540943       6.98862495       0.31235222       0.07703627       0.16065453
H        8.49380977      10.53129367      11.46963641       0.75435942      -0.77880225      -1.40606054
H        9.03493412      10.77297468       6.15791219       0.14963006       0.15609972      -0.29395661
H       12.22730414       5.72023634       7.84637663       0.37092128       1.10667173      -0.74934127
H        5.31546575       8.62233437       4.45204529      -1.19266188       0.65356876       1.01354450
H       12.00049389       5.11659946       3.86738631      -1.13083038      -0.65787323      -0.72672077
H        8.50595145      10.36179193       1.21343585       0.06124129       0.09998074       0.08812076
H        4.18790973       3.64840672       9.07934847       1.14081301      -0.13386191       0.84490859
H       11.02475235      11.65394057       8.66120033      -0.23864222      -0.54606194      -0.38542422
H       12.33616326       5.23426776      11.55071735      -1.01607122      -0.87335871      -0.38556937
H        4.31288154       2.75104628       3.32518288       0.62532420       0.07205769       0.24452676
H        7.62718577       6.01345634       6.08990758       0.62455461      -0.05999184       0.08949394
H        5.34630234       2.90027126      11.29797132      -0.11546212      -0.47389505      -0.23793745
H        7.46098671       9.31100873       9.30373213       0.34980158      -0.65288014       0.01771321
H        0.40644808       8.93607422      12.23598282       1.08905610      -0.46655490      -1.32576419
H        4.19959573       8.95328258       2.01659327       0.69902697       0.63924138       0.42373821
H        2.65416108      11.77407329       0.12023413       0.08273904       0.80420602       0.58539000
H        0.76901399       2.60506736       2.49913554      -0.95092276       0.92459208      -2.75281249
H        1.63695061       6.43709313       9.83503193       0.12424852      -0.76517070      -0.07896210
H        9.10203543       3.04554137       8.17856057      -0.58859627      -0.23636692      -0.40043136
H        3.61001460       2.00394658       0.36792416       0.53731873      -0.32746114      -0.42850165
H        5.91428241       6.14046943       0.74351705       0.67183192       0.47578262       0.07952380
H        4.21823080      11.82161352       4.25026002       0.19093149       0.32091450      -0.95764115
H        3.99470579       7.15059355       7.70723809       0.40633772       0.60107458       1.85391149
H        3.95003659       0.16824978       6.53108807       1.39720155       1.21315650       1.21414598
H        6.31887123       8.59971175       1.37168719       0.74425875      -0.82392327      -1.00134820
H        2.92847580       7.66765463       3.25403858      -0.54669354       0.05906082       0.01323425
H        6.14606375       4.42529842       6.78372216       0.33769160      -0.54605881       0.13574474
H        8.46322857       3.49271263      10.43429135       0.10184115       0.36698632      -0.65393987
H        2.48619893      10.76488256       5.15905799      -0.82306798      -0.29277868      -0.65158037
H        2.84035796       3.49298386       6.92646552      -0.25663245       0.52806849      -0.41637204
H        3.39804062       8.20446666      11.72760568       0.03091475      -0.10275873       0.11805429
H       10.77949805       8.57686281       7.38012805      -0.10060282       0.27969675      -0.19984543
H        9.79651484      10.80165881      10.64149988      -1.33668335      -1.01001345      -0.47612356
H       10.13140690      10.17663412       5.32699381       0.16987808       0.14173785      -0.17914823
H        0.00445822       4.80139124       8.97616901      -0.36498152       0.00805238       0.18554471
H        6.00176730       9.06839888       5.66538749       0.93207558       0.14294342       0.70856471
H       11.77295810       3.96861707       2.81630039       0.88277467      -0.73934459      -1.23210890
H        7.82875661      11.74094738       0.96915677      -0.08638966      -0.52461390      -0.18304245
H        5.42057470       2.88511140       8.81856565       0.81968524      -0.59046511      -0.32760622
H       10.44335266      10.78713582       7.43117793       0.98880917       0.12209909       1.11776813
H       10.79053755       5.29626405      11.27363814       0.87290938      -0.44771854      -0.21705610
H        3.08313320       1.83993148       3.70366165       0.24676912       0.92732269      -0.43258527
H        8.74459346       5.71686303       5.03106485      -0.06626067       0.39958554       0.39114907
H        5.15577346       3.48959360       0.18691256      -0.01688897       2.03642042       1.33903136
H        7.42162183       7.68051946       9.12598378      -0.52827246       1.99550395      -0.39940386
H       11.48004409       8.84321876       0.40058256      -1.60807917      -0.50040596       0.05537924
H        4.80304161      10.33931841       2.35760885      -0.36397152       1.72479833      -0.32058113
H        2.72878716      10.27947133       0.58781470      -0.11516277       0.47291603      -0.27353776
H       12.21298103       2.57918756       1.17741245      -1.46302964      -1.08099940      -0.65224681
H        2.20393181       5.24416036       8.93112862       0.22155136       0.00503059      -0.51231991
H        9.80644365       2.35861631       7.09451303       1.40068629       0.15426863      -1.55467695
H        2.25517408       2.10765193       0.99407708      -0.18735501      -0.57516722       0.11227448
H        9.56286925       4.68249517       3.16439424       0.57878915      -0.38500665       0.26531302
H        8.20846169       5.18289986      11.87937234       0.80136352       0.84262486       1.43986903
H        4.47591037      11.24832680      10.64695279       2.36055775       0.36746972       0.97547010
H        2.78204820       5.16525196       5.58767966      -0.57463058      -0.47687155      -0.61694106
H        7.46083994       8.99010772       6.97173524       0.23562948      -0.44806690       1.17093872
H        1.08567310       0.69262299       4.74456865       0.29848097       0.32159503      -0.82781288
H       11.18350001       0.16113780      12.30071139       0.30984004      -0.80072550      -0.57342178
H       10.13081639       4.84819196       8.57821603       1.79681494       0.39530921      -0.02762542
H        0.36945380       6.93043602       5.56454963      -0.16297138      -0.43889565      -0.13371908
H        0.89347434       0.15321897      10.91155308       0.29257893      -0.11651358      -0.65432694
H        9.63008366       0.54868837       3.69411300      -0.06757582       0.29014331       1.69017484
H        6.05657058       1.55444027       6.95364341      -0.52103636       0.10484473      -0.33867215
H        9.99565001       2.49866869      12.12756078       0.53830114      -0.84155183       0.90421920
H       11.16134398       0.75300498      10.07772265      -0.35377905      -0.01740136      -1.88348380
H        5.37955875       0.23080111       2.03886017      -1.26662448      -0.17067504       0.13046290
H        6.34205472       1.19604180       0.62641965       0.08943189       0.50171125      -0.18844565
H       10.62178576       7.71647033       9.40573553      -0.24972463      -0.03083815       0.59605372
H        2.14150697       6.85133692       7.11275263      -0.97050114       0.34465303       0.06355543
H        0.23795953       1.91171076       6.83237168      -0.06627250      -0.12822069      -0.25284949
H        3.62321901       9.17633964       9.14305558      -0.31978038       0.00010982       0.09254768
H        1.74884129      10.44407999       8.39732916      -0.72680140      -0.73444480      -0.22232032
H        1.35880557       4.48249062       0.71879532       0.55340381       1.44244143      -0.35860994
H        8.97445987       7.85582085       1.54811293      -0.74436217      -0.39701765      -0.45508584
H        7.81882043       0.36594987       9.90373080      -0.50988908      -0.11402774       0.06022636
H        9.97093146       8.41215618       3.19770557       0.58451104      -0.07534434       1.34508656
H       11.28638041       3.70567084       5.72998181      -0.09270800       0.13947818      -1.01097558
H        5.92475602       5.59313294       9.82028568       0.53319252      -0.13767981       0.02746544
H        7.01098674       3.69381804       3.81292881      -0.75153037      -0.41818465      -0.35197875
H        5.10981624       5.70277960       4.06007561      -0.09620568      -0.05452858       0.16659693
H        2.56191275      11.72527138       9.48635854      -0.46240657       1.46086306       0.96556409
H        1.11890108       8.66641310       9.95223381       0.03520910      -0.41441512       0.68743758
H        0.25587430      10.57193872       3.42307314       0.23770987      -0.49953231       0.76607564
H        3.79564951       0.53480217       1.75143169       0.57032233      -0.27762087       0.22635629
H        7.04010182       1.71046513       1.89248174       0.11038070       0.77720423       0.59338031
H        0.46123702       7.49295187       4.15486980      -0.21790527      -0.88234749      -0.08333485
H        2.06409095       1.02846969      11.10102134       0.83312047       0.59572096       0.46509588
H       10.39403076      12.06719724       2.70409210      -1.75767942       1.90325252       0.18505911
H        7.46233814       2.11786466       7.01984757       1.17770960       0.16935365       0.20974879
H        9.85950104       1.91160625       1.10893389      -1.76871845      -0.38118086       2.21476674
H       10.29356665       1.23459182       8.80845292      -1.55101839       1.00024261      -0.45071927
H       10.18791014       7.13290193       0.90699814      -0.42893579      -0.02328680       0.19567429
H        6.37892619       0.32025074      10.52017636      -0.05939495      -0.55783242       0.25563379
H       10.44513128       8.69000185      10.64053408       0.19343839      -1.66124173      -0.61305192
H        1.17436898       7.92771459       7.71850983      -0.09382333      -0.06647125      -0.15825876
H        0.34903389       1.01614388       8.03896293      -0.16252093      -0.23219563       0.35566681
H        4.87665665       8.42732188       9.47428460      -0.04582630      -0.34077768      -0.01164034
H        0.14360268      10.23403972       8.10212145      -0.00699067      -0.06975843       0.58773827
H        2.11503040       4.83247387      11.86841537      -0.05746961       0.61864124      -0.04607047
H       12.41156157       7.74030277      10.42510256       1.15246230       0.41778208       0.88368628
H        0.18188001      10.32455909       1.92094976       0.18030047      -1.11492135      -1.06414426
H       10.68910529       7.88078223       4.50056549       0.54910062      -0.58507955      -0.11770731
H       11.65841093       3.62286208       7.15402727       0.21382993       0.87960797       1.09590509
H        5.80265683       6.32657607      11.12008414       0.21239373       0.13912414       0.15194914
H        6.52020596       2.59849004       4.70973903       0.02866247      -0.87878040       1.47684141
H        4.61501292       6.04381241       2.71017351       0.30810012      -0.55735731      -2.23748284
H        3.91051872      11.71105726       8.59083572      -1.56723079      -0.18589102       0.38896373
H       11.74398630      11.06917161      12.04619143      -0.11943887       1.04695228      -0.13304607
H        8.80604782       5.32041731       8.00066628       0.19912944      -0.70951598       0.61768248
H        8.62569542       5.37344765       2.22422459      -0.47762076      -0.87040604       0.30543123
H        9.40419465       4.56004050       0.09789177      -0.37180839       0.72763894       0.58867070
H        4.87370665      10.87592331      11.98798132       0.53339963       0.12178888       0.58327659
H        2.49678417       3.90085898       4.63593534      -0.21557761       1.09900268       0.89301623
H        8.40231040       8.55958219       5.79974658      -0.29203944      -0.20430306      -0.22658477
H        1.08330625       0.04803541       3.37321827      -0.28337335      -0.75172326      -0.71694078
O        5.09472478       5.64055978       0.75400418      -0.11880847      -1.11316924       0.28069186
O        4.06132032      11.46488765       5.12598424      -0.07389080      -0.96438394       1.05667813
O        3.80586003       6.95153317       6.80509513       0.12014648       0.66716108      -2.57539562
O        4.32189715       0.83436860       7.25232617      -1.39199580      -1.65682964      -1.53266163
O        6.86044175       7.97202655       0.77183053      -0.47054245       0.80598749       1.16634899
O        2.18375271       8.29496092       3.10019583       0.56051792      -0.67313109      -0.16519359
O        6.27811069       5.36537680       6.99148151       1.13908089      -0.70066067       0.42728460
O        8.40859646       3.11933539      11.31839621      -0.32050921      -1.19593542       0.08062943
O        1.57886236      10.29781718       5.08120613       1.19195092       0.65037843       0.18301811
O        2.71683189       3.27780493       7.86444295       0.77848626       0.25588139       0.31738150
O        3.62456434       8.00524716       0.23229838      -1.97644883      -0.79897689       0.62797429
O       10.38918431       7.74988668       7.67957589      -0.14120537      -0.49060192      -0.10981328
O        8.98000184      10.19323305      10.60489754       0.54062183       1.93122428       1.87933361
O        9.97535311      10.95016795       5.91873767      -0.79224557      -0.32357180      -0.34340539
O       11.78775283       4.97297092       8.24818304       0.38365843      -0.97848510       0.69369503
O        5.07882584       8.99581885       5.36946115      -0.01606474      -0.83287090      -1.84226756
O       11.30904826       4.49212654       3.44683691       0.15391247       1.78446163       2.27622551
O        7.87491251      10.80526048       0.62572852       0.12679510       0.52488111       0.32778510
O        5.12172761       3.52101821       9.47054169      -1.95708217       0.59328700      -0.39371513
O       10.93154043      10.71100770       8.33337725      -0.24171298      -0.21265228      -0.79263037
O       11.56032837       4.66556517      11.24067848       0.12066564       1.35213639       0.59850229
O        3.35727547       2.76360411       3.44125997      -1.02556415      -0.81794815       0.25966667
O        8.57761601       6.22628834       5.85904025      -0.25073674      -0.29480429      -0.33847615
O        5.26060819       2.63554591      12.24509981      -0.09520310      -1.24796595      -1.17960336
O        7.15991260       8.58274714       8.71688016      -0.02378738      -1.23945340       0.57401299
O       12.36471235       9.07392326       0.62091808       0.62310200       1.05908204       1.08143286
O        4.93435316       9.41672261       2.50578692      -0.06632874      -2.27558386      -0.32664037
O        2.58810299      10.87294957      12.24961518      -0.00439132      -1.46034165      -0.17172124
O        0.47594888       3.07829805       1.58411965       2.58622421      -0.35034562       3.46065200
O        1.71356117       5.44477448       9.72890094      -0.11465361       0.34148875       0.91466849
O        9.03696366       2.20761030       7.62432128      -0.78047373       0.05171839       2.14421278
O        2.86642433       1.41891732       0.63999441      -0.51912371       0.95018795      -0.13537190
O       11.52536824      11.94110563      11.60867104      -0.11813995      -0.14039121       0.97871557
O        9.19330251       4.74592176       8.71277348      -2.24793060       0.22549563      -0.30286789
O        8.61728326       4.66714648       2.92407490      -0.26008174       1.02594197      -0.24582674
O        8.86371531       5.38318201       0.20693835      -0.40130032      -0.85446045      -1.78322348
O        5.34446302      11.30639191      11.25095349      -2.93656256      -0.47981143      -1.68211613
O        2.08367930       4.50455940       5.35106328       1.11081736      -0.65123370      -0.48228542
O        7.66963875       9.15353260       6.04456139       0.11414078       0.66732697      -0.79031871
O        1.35348136       0.86234853       3.80108585      -0.14994176       0.58476156       1.51602002
O        4.43504948      12.36343146       2.23319954       0.89784353      -0.03403525       0.18893347
O        6.99856907       0.95934206       1.30513400      -0.14977099      -1.03791855      -0.41733764
O       12.42506791       6.77202921       4.65731130       0.35459944       1.29769409       0.23585715
O        1.66938966       0.50938871      10.40003109      -1.35821692      -0.40333887       0.14306972
O        9.63859716       0.36833265       2.77104041       2.06376675      -2.33463404      -1.78976439
O        6.61521452       2.26677468       6.58419576      -0.96643937      -0.01932785      -0.08613124
O       10.46149482       1.93848020       0.40869625       1.46149779       0.82001557      -3.02935379
O       11.05074364       0.73212937       9.06667479       1.91277182      -0.30413252       2.50615764
O        9.92953346       7.90983880       1.43997360       0.50622399       0.31030555      -0.00349542
O        6.99460160       0.87745666      10.02175840       0.65984122       0.57666398      -0.23020860
O       10.76413540       7.75186981      10.39735439      -0.42849583       1.40690073      -0.10022638
O        1.16793763       7.02496138       7.32962646       0.55155008       0.04279766      -0.34370937
O        0.85807783       1.27866917       7.25833350       0.28618560       0.25745777      -0.37738614
O        3.91074934       8.27280274       9.38383450       0.64337705       0.35081167       0.08049225
O        1.00426851       9.77204428       8.33478998       0.57705676       0.36260240      -0.46376126
O        1.77903545       5.28297079       0.24438150      -0.51831649      -1.82389682       0.40163785
O        0.97090510       7.99016712      10.67785714      -1.07363596       0.35473072      -1.52480160
O       12.39586209      10.95717872       2.59724658      -0.59093003       1.75929820       0.54356870
O       10.05611745       8.53963038       4.19443071      -0.75388548       0.68922246      -0.82637813
O       11.29057473       3.07386642       6.45172861       0.02361908      -0.93645422      -0.55993654
O        6.46855728       6.12740824      10.44064728      -0.47287723      -0.12952204      -0.35806047
O        6.21975864       3.10275295       3.96184505       0.80585217       1.41392947      -1.47441312
O        4.44016936       6.24044121       3.60954524      -0.11298828       0.51969974       1.97920905
O        3.16727978      11.16324212       9.00422351       2.42349276      -0.80643133      -1.20848897
192
Lattice="12.429 0.0 0.0 0.0 12.429 0.0 0.0 0.0 12.429" Properties=species:S:1:pos:R:3:forces:R:3 energy=-933.5358454082208 pbc="T T T"
H        3.01955678      11.24415897       4.93435619      -0.51713259      -0.27222348      -0.14724927
H        5.72314311       9.89733811       9.91434198      -0.87434008       0.13851291      -0.24533512
H        9.93406837      12.22297086       0.89860827      -0.23039248       0.09203809      -1.03235282
H        4.71343344       5.00412203       5.95018479       0.05864050       0.32993689       0.49979034
H        3.97537107      11.90312075      10.67071099       0.67785206      -1.56528761      -0.46499172
H       10.02377323       5.36202994       8.73610987       0.63894187       0.28643138       0.00967450
H       11.98056879       9.05211389      12.40323520      -0.06629359      -0.46437641      -0.30891661
H        7.98313555       3.33018195       4.40231045       0.17930521       0.57172633       0.11147169
H       12.36675798       4.72381195       1.89467368      -0.53520983       0.16613573      -0.58400197
H        0.85843469       5.42203276       8.30902509       0.15029317       0.68506661       0.47473500
H        6.89654092       9.46070455       0.88434101       0.14743949      -0.20509408      -0.07671271
H        0.71438717       0.39643599       7.62403013       0.24469067      -0.28110370      -0.14253740
H        0.53287118      10.14556569       3.82988141       0.33707217      -1.14701285      -0.65693486
H       10.04801194       7.98161548       7.20390669      -0.14096146       0.41165736      -1.63766447
H       10.35909614       8.07973761       1.82631219       0.64978964       1.02882371      -0.95432120
H        9.83295520      10.04004466       5.48660988       0.28368022      -0.39191172       0.07455404
H        9.91227024       5.57175987      11.16209479      -1.10711610      -1.62755452       1.03383378
H       11.02218818       0.41748239       9.42026134      -0.55822923      -0.25261333       0.49999174
H        4.73438712       1.23356729      12.02689380      -0.26609858      -0.49152572      -0.48986030
H        2.44247037       1.39892500       0.36854550      -1.86846920      -1.02063890      -0.66949564
H        3.60510610       4.67224308      11.84166804       1.42113518      -0.52057914       0.53853216
H        7.76407017       3.20233243       0.62704544      -0.00824754       0.30801513      -0.55835594
H        6.78312046       6.33799200       6.40194027      -0.60313559      -1.49318842      -0.84865324
H        6.36004836       0.39248134      12.28872612      -0.12218145      -0.66416284      -0.79940017
H       11.78364809       6.13002615       4.73244123       1.62893934       0.67782809       0.50275420
H       10.93491799       2.49879351       2.05962843       0.65662469       0.17949940       0.68021450
H       10.29410131      11.60155010       3.08966556      -0.11039206       0.37908248       0.00171988
H        4.95577476      10.59372272       0.84552892       0.73074923      -0.49222281      -0.31876952
H        5.46726947       7.96394469       7.00314395       1.43867793       0.33638441      -1.06782378
H        9.97152448       4.53570763       6.47126619      -0.89239640      -0.49734658       1.80675208
H       12.32492462       9.21475921       9.70342231      -0.71325437      -0.45863187      -0.52030508
H        1.33440972       8.71261186       6.63914007      -0.01080747      -0.76130772       0.20284350
H        1.97231531       0.09820925       5.04871391       0.01150030      -0.94324040      -0.09684807
H        7.09954251       9.23015851       9.89844798      -0.75555453       0.91497180       0.71092588
H        8.82400328      12.25595184      12.21182837      -0.63627139       0.15134624       0.33706622
H        3.48327966       5.84509893       6.42758012       0.47603675       0.10135662       0.13077965
H        3.99675514      10.41387883      11.19478679      -0.02895931       0.17106331      -0.70728522
H       11.25575219       6.35835440       9.14967933       0.61770647      -0.11133436      -0.34073215
H        0.69944224       8.13862193      12.33417516       2.34097317      -3.03627206       2.41954453
H        7.81159464       4.11787319       3.13080930       0.93935444       0.31617860       0.99106085
H       11.58694567       4.57898950       0.52959404       0.10372454       0.05226088       0.54584801
H        0.96447870       6.99286382       8.31060453       0.34248859      -0.75844884       0.50475416
H        5.95927885       8.43129291       0.19445590       0.13560927       0.31365098       0.89504750
H        0.88132578      11.85370932       8.87214709       0.47259851       0.01009043      -1.75330773
H        0.38437845       8.59920509       3.93455376       0.52045297       0.57855420      -0.68444284
H        8.92340591       8.09317295       6.09253508       1.77800699       0.15333845       0.17488581
H       11.69294154       8.83669709       1.97338688      -0.24174733       0.31824180      -0.14976250
H        8.72092020      10.99930920       5.78207071      -0.17077213       0.11214100      -0.24734924
H        9.80951514       4.05798272      11.59243433      -0.43281724      -0.18654619      -0.23646491
H       10.21897313      12.01126159      10.57008603       0.37854334       0.21673692       1.01852966
H        5.06944157       1.51296236      10.53822991      -0.22183699      -0.44450325      -0.22105659
H        1.87772712       0.23908335      11.84224356      -0.14406777      -0.18824646      -0.22336245
H        5.19426787       4.90594941      11.95049338      -0.49382126      -0.21885579       0.38621265
H        6.53207342       3.81860895       1.45648288       1.17941265      -0.81034706      -0.34936462
H        6.83697265       5.24740441       5.16174791      -0.36233079       0.59047673       2.15128131
H        6.81444624       1.30342328       0.87693979       0.49076556       0.45267173       0.82465190
H        0.22952344       6.89781740       5.78983920       0.01220836       0.44722842       1.56618384
H       11.69906561       2.09953220       3.38390448      -0.38229600       0.34375639      -0.51217975
H       11.36651868       0.06741488       2.43379897       0.39299172      -0.33551135       0.22968101
H        3.59486614       9.87651025       1.17693203       0.48051493       0.05674167       0.04355410
H        4.97587071       7.43133353       8.32095972       0.38322316      -0.94627178       1.12853184
H        8.52391145       4.65038332       6.99711749      -1.23007506       0.27460362      -0.24544658
H       10.91466281       9.18653178       9.01537926      -0.49685743       0.43635380       0.34036754
H        2.64023552       8.01365322       7.06925254       1.84703000       0.15071162       0.46890913
H        4.60646040       1.46695477       8.51950159      -0.68284630      -0.90780256      -0.68652802
H       12.13639019       1.53777971      12.38078696       0.51878803       0.20203503       0.16169942
H        0.97712119       0.13889895       1.69841241       0.78328821       1.15127775      -1.39919167
H        3.61882456      11.74845328       7.94248314      -0.71421820      -0.41843579       0.05223169
H        1.14712802       3.26786280       2.22729863      -0.30455365      -1.23958211      -0.04555548
H        8.02634577       2.22601793      10.13584736       0.38472319       0.48742684       1.46204621
H        7.09610905       7.75864456       2.67624138      -0.91045125      -1.64677930       1.14172646
H        3.92195432       0.17214331       2.05288027      -0.31059087      -3.11003322       0.80941904
H       10.24101208      12.35399362       6.02376256      -0.49152588      -0.14122059      -0.04550205
H        1.64166228       3.23424952      10.14958395       0.64022039      -0.28981469      -1.51643608
H        9.92634539       6.13866738       1.64449352       1.34293267      -2.07901636      -1.52939286
H        1.80830526       8.02752891       1.82238981      -0.38763095       1.05728169      -0.31962771
H        7.03276839       9.19292469       5.76648771      -0.00540703      -1.06791747       1.16973630
H        9.63278827       8.82548980      11.54456777       1.50831215       0.78735679       2.85413511
H        1.20928494       5.34032787      11.22828682       0.38248258      -1.28243064      -1.00210047
H        9.85376271       4.69783441       4.67068101      -1.42654106      -0.89995396      -1.12236976
H       11.83835366       9.51761919       6.75906182       0.11317396       0.06944969      -0.13885766
H        8.79554672       9.73169852       9.09507665       0.03377815      -0.00316161       0.38844891
H        8.49249289       2.09431435       8.00124878       1.42747617       1.14107429       0.10873434
H        2.81180933       6.02306207       9.34761731       1.46795371       0.18677572       0.10581367
H        7.79648194       6.62234382       9.13202860      -0.16808811       0.05790280       0.28134879
H        1.87209691       5.99928412       4.41545754       0.17324580      -0.35883668      -2.34977554
H        7.34074403      11.00987182       7.64756724      -1.18498818       0.98520552      -1.52052446
H        5.05810403       1.60874420       5.34643412       0.58170791       0.11302107       0.32187116
H        4.02869294       8.86337976       4.35544087      -0.46348678      -0.52460502       0.08136320
H        3.71532191       8.14304467      12.24875078      -1.32506452      -0.85176952       1.08651759
H       11.77609842       1.19598085       6.05036771       0.49432920       0.32847984      -0.39691356
H        4.47305668       4.12143418       3.26129499       0.82004793       0.65897295      -0.89987572
H        1.00006348      10.55227371      10.93080906      -0.01674259      -0.03985104       0.08858412
H        1.03840708       3.38105053       7.46760895      -0.11284178       0.17939454      -0.50447782
H       11.58079789       2.24624283      10.43906655      -0.70415668      -0.14693297      -0.69474763
H        7.07047349       6.63206065       0.36691049      -0.04645505      -2.30281082      -0.24831849
H        1.04282219       4.39033866      12.26934589       0.03002311      -0.93555101       0.26762186
H       11.28902803       3.98333076       4.82951104      -0.88014913       0.76213354      -0.26408767
H        9.35129305       1.17093727       6.13808583      -0.65395560       0.40363858      -0.68418035
H        2.67916333       2.34804194       9.28199200      -0.66262577       0.44864079      -0.08000075
H        9.34491700       6.21910202       3.09305016       0.08899670      -0.12105679      -0.31947756
H        2.35955198       6.81174702       2.10566858       0.59352864      -1.80764120       0.94168510
H        6.78424914       8.02028972       4.95144880      -0.05486480      -1.19858560      -0.41883761
H        9.67114837       7.62767701      10.53456811       0.39495256      -0.00170656       0.13716166
H        5.83533186      11.45108142       7.25862130       0.66791165       0.17478981      -0.50451223
H        5.28274767       1.45472364       3.92593042       0.06431953      -0.29765164      -1.16922098
H        0.44521930      10.64684695       6.89676629      -0.14825350      -0.03803114      -0.35561771
H        9.70146526      11.00588756       8.81082752      -0.98513249      -0.49943108      -0.41236592
H        7.66887431       1.00835130       7.64718099      -0.44932338      -4.31895896      -1.67368947
H        3.80825951       4.85498737       9.45888062       0.49152995       2.46595904       0.02531586
H        6.89309018       6.58168891      10.42861905       0.28938494       0.65933096      -1.70685357
H        3.24911231       5.65408958       3.80709406       0.34867765      -0.15116699      -0.06710983
H        0.06806283       2.46381341       9.34597232       0.49774786      -0.23627445      -0.85193264
H        7.83990021       5.28360155      12.22150422      -1.37630322       0.83158658       0.78879078
H        5.10011116       9.70035302       3.74603985      -0.19218900       0.27918558       0.28262419
H        4.36334121       7.64896254      10.94260631      -0.22123000      -0.29064017      -0.15148747
H        0.52456050       2.05577275       5.41946091       0.32752879       1.83048564       0.21770607
H        4.36659524       4.63392256       1.78667560       0.30556275       0.01111809      -0.45428297
H        2.22598309      11.10331995      10.16796730       0.49117668      -0.27718594       0.20454875
H        1.78915773       4.26727707       6.51685739       0.22917561       0.01512720      -0.37632611
H        6.07315095       6.57365465       3.05112488       0.18353911       0.16474584      -0.16056317
H        3.40601992       1.56748111       2.36917315       0.44504705      -0.45656976      -0.70248028
H        5.75754474       2.35104173       8.68906908       0.02971372       0.39918874       0.11567667
H       10.63636227       1.35778515      12.27531960      -0.52225140      -0.52718657       0.07473052
H        0.61111683      11.12992533       1.91269649       0.11202981       0.06581541       0.14868172
H        3.46701029      12.36255322       6.44748585       0.24765827      -0.22802297       0.78645753
H        2.33117755       3.88978070       1.93102340       2.07769856       3.18811484       0.04877512
H        8.99459815       1.70553498      11.19371107      -0.38845367       0.30348703       0.06211318
O        2.86689681      12.19298810       4.82034559       0.39092915       1.18473199       0.07272664
O        6.61119414      10.04215384      10.23316314       1.65846831      -1.14690034      -0.21152731
O        9.78642232      12.32058870      12.31188694       0.30157864      -0.46617745       1.17160430
O        3.73655136       4.98749243       6.05083661      -0.65669771      -0.22957260      -0.41129290
O        3.92674749      10.91756753      10.34807482      -0.49524358       1.16870705       0.72960736
O       10.36679262       6.05377228       9.36313447      -1.28658311      -0.11179547       0.47086328
O        0.26130927       8.71838358      11.80394880      -1.94578225       3.49919240      -2.58441881
O        8.21536956       4.22936768       4.06396078      -1.28624556      -1.03862693      -1.16030257
O       12.24848881       5.12549449       1.00453062      -0.07682762      -0.07951449       0.24086110
O        0.97484394       6.19176784       8.93020859      -0.39895836      -0.09223438      -0.86502815
O        6.43809583       8.61997168       1.06431624      -0.14922423       0.18118493      -1.02280866
O        1.11528758      11.96748129       7.86620562      -0.79459120       0.06439137       1.79095686
O        0.70562977       9.31112392       3.29564224      -0.79950109       0.03053625       1.51039012
O        9.95080213       8.16631188       6.21320294      -1.65660200      -0.73377389       1.39617212
O       10.93662768       8.78780866       1.34058659      -0.68893248      -0.87999903       1.58210187
O        9.40334827      10.82387436       5.10614856      -0.16552485       0.15551084       0.10035505
O        9.41952779       4.92042033      11.81549257       1.78508670       1.79443465      -0.95749691
O       10.36586077      12.12854385       9.63417141       0.48003063       0.23936307      -1.39335264
O        4.91266178       0.75691429      11.17492323      -0.07681432       1.23192903       1.23487279
O        1.58593791       0.96575189      12.41745606       1.57612076       1.09997604       0.90500672
O        4.45104219       4.34728870      12.29436990      -1.24749662       0.61431827      -0.85262526
O        7.32274644       3.19215921       1.48089412      -1.28675305       0.36680438       1.06078978
O        6.48026163       5.41265536       6.12364170       1.32594006       0.55463265      -1.32288012
O        6.98744155       0.39451164       0.59433316       0.06513823      -0.38889225       0.05585222
O        0.24591964       6.62723311       4.89176600      -1.42364356      -0.68994159      -2.08785388
O       11.43295949       2.87699547       2.83559125       0.12889844      -0.64273890      -0.04270160
O       10.40540348       0.01097836       2.59335223      -0.45080437      -0.24928083      -0.17075383
O        4.09202002      10.70996090       1.22623751      -1.24341219       0.36276463       0.43308802
O        4.70477412       7.89760785       7.54744145      -2.18941477       0.71096945      -0.18446043
O        9.35740106       4.27881076       7.27480368       2.01112254       0.28691603      -1.13256177
O       11.80794403       8.84210864       8.95017013       1.02430056      -0.16102047      -0.03886788
O        1.73001134       7.82251310       6.91328329      -1.56815206       0.78005709      -0.56697790
O        6.80705307       7.10654032       3.41504493       0.51377938       1.26697830      -0.99113589
O        4.00180570       1.04303053       1.77296120      -0.07999198       3.71499061      -0.18148743
O        4.84481343       2.24229111       9.03523176       0.81186606       0.64543552      -0.01120207
O       11.30474251       2.04436559       0.00740532       0.36232193       0.74779548      -0.10956614
O        0.75092040      11.96615090       2.39206937      -0.74725772      -1.04579779       0.88356274
O        3.97491512      12.37529361       7.31436830       0.86435617       0.78172657      -0.37857853
O        2.02423511       3.03164571       1.85786081      -1.83855015      -1.92453524       0.35728582
O        8.37122771       2.45180560      11.06571817      -0.14008726      -0.94215131      -1.69054621
O        1.36360160       4.35191440      11.34014549      -0.19198735       2.30436991       0.71662426
O       10.76743141       4.82188033       4.89131669       1.94116155       0.00584165       1.06702355
O       10.04905544       0.70651783       6.58549998       1.20448948      -0.23006981       0.52043195
O        1.84341039       2.86499278       9.20353520       0.20027384       0.15022299       1.42709097
O        9.46987893       6.67005214       2.24388812      -1.40258796       2.10140516       1.62136901
O        2.29501441       7.35944505       1.32193897      -0.16038444       1.22927872      -0.78538923
O        7.05359466       8.18545876       5.88119664       0.23266118       2.50507071      -0.51036089
O        9.30217874       8.49071193      10.76228702      -1.83754349      -0.65108580      -2.96169568
O        6.76093063      11.45533265       6.89454703       1.02109434      -1.21220063       2.02019100
O        5.76684532       1.76872626       4.68989743      -0.54361987       0.24656269       0.72454658
O        0.11424264       9.95820797       6.24530423       0.14952368       0.25208769       0.37959001
O        9.06700063      10.31498017       8.37782949       0.69466263       0.35980403      -0.38318041
O        7.58819380       1.82500996       8.02546637      -1.06306131       3.25529317       1.75095551
O        3.82450139       5.89609324       9.49226501      -2.04358096      -2.56305204       0.01813938
O        6.98118833       7.00804811       9.50447401      -0.14395061      -0.81553701       1.43004720
O        2.33858539       5.77212934       3.50244638      -0.67551875       0.36337858       2.10376962
O       11.57772519       2.16418692       9.44184331       0.05059169       0.22934299       1.46584325
O        6.93422118       5.62611806       0.17971647       1.38531556       1.91486662      -0.84492944
O        4.57677454       9.62120241       4.57103490       0.44023058       0.29471875      -0.41682990
O        4.40239192       8.32766543      11.63268330       1.35657484       0.57250146      -0.91923775
O        0.24228226       1.18047997       5.60745148      -0.80096371      -1.85670290       0.15233757
O        4.91903908       4.71700216       2.58849069      -0.58724264      -0.71949042       1.38537225
O        1.32371774      11.35227464      10.47453957      -0.65883271       0.00243987       0.16304317
O        0.89228881       3.91022542       6.64131424       0.10319822      -0.27352901       0.78861612
192
Lattice="12.429 0.0 0.0 0.0 12.429 0.0 0.0 0.0 12.429" Properties=species:S:1:pos:R:3:forces:R:3 energy=-936.9957575460919 pbc="T T T"
H        6.49918682      10.38477482       8.71494002       0.27976114      -0.17102223      -0.01098450
H        4.99923811       2.25507692      12.39409029      -0.10752420      -0.30256004       0.27539429
H        0.84746236       1.81203699       1.71706024      -0.27579093       0.66481106       0.52780527
H       10.14751825       8.84699751       0.87335597       1.75255211      -0.09635702       0.24052279
H        2.17276023      11.95474238       5.16717801       0.55641163       0.17783193      -0.46608427
H        9.67880983       5.97061641       6.37491567      -0.11045849       0.40954686       0.07487512
H       11.75016555       9.19510525      11.91508931       0.75863556       1.18991219      -0.60333694
H       11.50246610       2.92557673       2.68507793      -0.14988149       0.75177178       0.10388127
H        2.11420418       7.24614727       3.93267801       0.23357441       0.56640920      -0.69779028
H        0.50838215      11.01523664       2.51363302      -0.26574398       0.69130016      -0.01801939
H        2.45289735      10.21153647       8.05910865       0.05026146       0.76888111      -0.71376629
H        8.76247009       9.50344567       2.37661171       0.27257930       0.19818191      -0.27041620
H        7.46389283       6.22713059      11.50262895       0.43601947      -0.17034726      -0.00555790
H        6.43165974       3.78125290       0.49419029       1.38828295      -0.00176599      -1.35578440
H        3.06474150       8.26238641      10.98574429       0.51906160      -2.08076186       1.70365686
H        6.19595242       6.36047577       5.18637752       0.53133369       0.20244953      -0.23750732
H        8.07217160       3.57237080      10.82002978      -0.40027947      -0.77895396       0.83811233
H        8.05863039       4.16938716       7.85449969       0.34844396       0.24598203       0.04001435
H        1.78883933       0.46631725      11.81580473       0.59214686      -0.17987335      -0.49025278
H        9.80447876       2.06045869       8.39234428       0.11623465      -0.32362996       0.09567664
H        1.11444841      10.04292585       6.11437900       1.28586251       0.40537391       0.41306129
H        8.66283638       0.05745605       2.99544158       0.05055615       0.11569629       0.18650448
H        5.69305033       6.43607463       1.20659796       0.50458571      -2.53450303       0.49252644
H        3.98404201       2.43875165       3.45535005       0.00138852      -0.50815437       0.54700606
H       11.27972750       9.71150263       7.48705220       0.65573509       0.49191389       0.43352720
H        2.35522632      12.20054724       1.16417796       0.67992381      -0.09808167       0.33314088
H        1.58852053       5.38287175      12.15943511      -0.49683588      -0.44720972      -1.05520647
H        6.98352624       0.43029561      11.80952357      -0.28287600      -0.42942227       0.16205335
H        2.87447996      10.31654006      10.96563256      -0.12320923      -0.07973858      -0.68928211
H        0.62500003       1.89866512       8.97056582       0.17569960      -0.07148059      -0.15096442
H        7.53323766       1.52524729       6.50399094       0.03983754       0.14355473      -0.62911272
H        8.07617376       0.33991470       9.06476620      -0.52410419       0.00373945       0.12670493
H        5.30743527      11.28129199       8.80845943      -0.87987390       0.71916085       0.50645644
H        3.92720736       1.36958272      11.60306856      -0.00386853      -0.39602680       0.33678977
H        0.71759254       1.82107573       3.22054299      -0.16607810      -0.13866218       0.33553423
H       11.34426824       7.85812508       1.12531879       0.15640130      -0.20413531       0.23260491
H        3.48323876      11.38167665       4.52741803       0.94757873      -0.98868478       0.11553598
H        9.87229719       4.50791038       6.10077984       0.44476539      -2.15423999       0.88763947
H       11.75111031      10.65431018      11.17181272       0.41040623      -1.18285017       0.44113281
H       10.81391484       3.89162517       3.72216417       0.36003261       0.52262683       1.83091870
H        1.55973045       6.28711068       4.87239473      -0.34317942      -0.83358441       1.16501234
H       11.66311571      10.21567932       2.46933960      -0.37893586      -0.61118292      -0.18796730
H        3.53199308       9.82028634       7.16768127       1.61030666      -0.87478488      -0.56353774
H        8.24321946       8.22613198       2.05350211      -0.43889420      -1.31406541       0.20384966
H        7.86721171       7.18380053       0.13547942      -0.05349251       0.52298810       0.49447044
H        6.36671896       3.72797315       2.00766088      -0.03873764      -0.05092377      -0.20695008
H        2.96984987       6.99657861      12.12821831      -0.52907185       0.16638059       0.03741085
H        5.11879422       5.34834212       5.67019956       0.14125116       1.05793629      -0.13890467
H        7.93175575       2.07084502      11.03186509       0.25933817      -1.19818465      -0.75498162
H        6.74631021       4.70271157       8.60652027       0.64547879      -0.04233305      -0.14819345
H        2.66035787       0.03268705      10.55753968       0.14639481       0.12570548       0.73311763
H       10.96022469       3.00706216       8.82870720       0.47786232      -0.24963689       0.66681522
H        0.47682409      10.28201265       4.63569905       0.12272278       0.05439307       0.39206648
H        7.27018082      11.92558526       2.85004495       0.44809889       0.18179990       1.01043883
H        5.22415579       7.41207091       0.19041584      -0.30104752       0.11802637       1.25462539
H        3.79432303       1.16870424       4.41827876      -1.04916586      -0.79691075       0.07321929
H       11.44071189       9.93928995       8.96939157      -0.11883475      -0.28454186       1.33581176
H        2.31925257      12.34583531       2.78889275       0.81576156      -0.13362120       0.30036162
H        2.22879251       4.92499702       1.11603605      -0.11329941       1.36453021      -0.70305660
H        6.79606109      11.35861349      12.03171706      -0.21835573       0.11604208      -0.07561591
H        1.43601767      10.02267592      10.67518579      -0.96584143      -0.46849977       0.11054106
H        0.36120932       2.23144029      10.49289714      -0.08933876      -0.45868631       0.37309266
H        7.64009613       1.65949630       4.92042566      -0.10127325      -0.07110454       1.39091749
H        8.67141632      11.31416086       9.17127794       0.13582401       0.62611063      -0.13178788
H        4.58061152       0.76049078       8.63380786       0.63961785       0.72399203      -0.51749627
H        6.74435355       2.53614975       8.61107594       0.07997645      -1.08906461       0.22527441
H       10.61646943       0.05078449       2.30582042      -0.38621184       1.22693883       0.32814116
H        6.87243942       9.93631348       1.50821993       0.90257153      -0.61744253       0.18490436
H        0.91232694       4.38505093      10.18590699      -1.92684059      -3.47449457      -2.43764890
H        4.92291421       7.44979407       7.27561395       0.08327603      -0.07881288       1.09571392
H        9.45610134      10.44290865       4.50108898       0.24625178      -0.46592824       0.05161762
H        5.99389017       3.39761518       6.51214243       0.10550381       0.00499517      -0.17361936
H        8.57621943       6.90356149       4.42653925      -0.24160899       0.15985298      -0.33809396
H        0.91448305       5.81515706       7.08638788      -0.28559958       1.06322406       0.68297664
H       10.07099649       0.00874228      10.87301867       0.06444779      -0.33577837       1.20717297
H        9.66026126      12.10811664       6.97158921      -0.34969801       0.11774086       0.14556451
H        0.04625645       2.08617838       5.10962964      -0.16326970       1.81419433       0.78470289
H        5.87233649       6.32523572       9.46123471      -0.58161619       2.33691094      -1.47974753
H       11.91528102       8.31767750       5.32702539       1.26748412       0.46301182      -0.18745643
H        0.48029591       6.09653310       1.44056760      -1.90529747       0.18089777      -0.08550829
H        7.43607825       8.10329782       6.80572665       0.96918499      -0.53148450       0.92439761
H        8.90577189       8.58189062       9.72911394       0.71315484      -0.65507960       0.48756574
H        1.96053432       1.81166411       7.45468215       1.35836412       1.68396349       0.17524516
H        7.92259450       9.32142668       5.15728242      -0.27906640       0.55025988      -0.13017424
H        5.59218631      10.00002197       4.65858313      -0.37698690      -0.42596409       0.00562371
H        5.91884087       9.33501707      12.19875362      -0.03306223       0.22360546      -0.93625336
H        8.56781744       3.68941933       2.87403112       1.95322671      -0.60166107      -0.72952059
H        4.37403036       7.49701091       4.29482451       0.89672291      -1.04114221      -0.19920847
H        2.90984095       7.05612721       8.58384903       0.76439194      -0.50987888       0.04328706
H       10.21954616       3.74313154       0.06788755      -1.21218816      -0.15230751       0.30305512
H       11.34613383       2.90875649       6.89238361       0.11824840       0.17640293      -1.26391073
H        2.05781679       3.71221842       2.98573348       0.25319882       0.10763803      -0.21289548
H       11.81813910       0.86060611      12.11398540      -0.14670933      -0.03595242      -0.05899568
H        5.80635588      12.12161262       1.65482110      -0.19052008      -0.75563400      -0.38770199
H        4.11490987       3.35912590      10.82558640      -0.06879555       1.25478829      -1.13910773
H        3.78319915       3.34892025       7.19348066       0.15406908       0.36140364      -0.43765107
H       11.53542549       6.82509813       4.81447318      -0.36179042       2.02749555       1.00891431
H       11.61819653       5.44179983       2.15679445       0.18188185       0.95702387      -0.52624299
H        7.90313395       5.92624241       3.50453026      -0.14962691       0.54401230      -0.03438784
H        1.86350920       4.61888422       6.99042425      -0.36031592      -0.08001482      -0.57770090
H        9.99957770      12.14793245       0.08761179       0.59413922       0.40099378      -1.88422873
H       10.97984227      11.49375749       6.64462396      -0.58847160       0.28168618      -0.58788261
H       11.80385324       0.81897712       5.12905227      -0.27519501      -0.74625238      -0.16872527
H        5.45278652       5.14013227      10.14623219      -0.22451552      -0.37399648       0.69150833
H        7.68331719       3.43313946       4.09671727       0.12890080       0.18843514       0.19268952
H        4.35900265       7.77082606       2.67491953       1.11669610      -0.75633667      -0.92789586
H        8.43486287       7.96867894       8.05470317      -0.57948210       0.24860563      -0.49515095
H        7.69326122       9.32510587      10.31882491       0.47384468       0.03804785      -0.66600973
H        0.92407918       1.05053178       6.73086746       0.10813493      -0.27490425       0.81133679
H        7.09986764      10.30120396       6.10786522       0.25754377       0.28313444       0.21283082
H        4.27260599       9.30604421       4.01353335      -0.05089413      -0.82775473      -0.14543401
H        5.45990085       8.85330746      10.74928469       0.78929241       0.85366065       0.90375216
H        3.10901007       4.59727417      10.60867600      -0.06506903       0.25065170      -0.06631023
H        3.24978478       3.94291861       8.49262825      -0.17480270      -0.36835697       0.26986438
H        1.87234176       8.03095567       8.74265359      -0.74816603       0.53713876       0.34646766
H       11.27216778       4.83722718       0.30905366       0.08429701       0.68009203       0.32415966
H       12.19636028       4.04327018       6.21579177       0.34725034      -0.11238338      -0.12783415
H        2.63559234       5.08539961       3.32788422      -0.08667443       0.38180299       0.15902978
H       12.16209565       2.34617088       0.03722768      -0.06043368      -0.06346239      -0.13905176
H        5.49274083       1.00957169       2.31259616      -0.14628378       0.09736735      -0.50752872
H       10.01807515       8.91078667       4.62920421      -0.51838608       0.67064529      -0.52247108
H        4.90751229       3.00898235       5.41229840       0.25702548      -0.25829697      -0.09481501
H        3.21176747       0.10764758       8.26986239      -0.83683295      -0.23946527      -1.50808796
H        6.11725761       1.85433866       9.83757609       0.10008428      -0.52342199      -0.18553341
H       10.02576411       1.50699729       2.77803375       0.46000181      -0.31529032      -0.35689271
H        5.54507776       9.99377768       2.32736069       0.47620189       0.55520614      -1.01625966
H        1.39995400       5.90059559       9.97300643      -0.11546074       0.11971941      -0.76502933
H        5.09275249       8.66233627       8.26144144      -0.41678509      -1.30320509       0.13475126
O        5.66135954      10.57572663       8.27220253       0.67630490      -0.95523168      -0.57834224
O        4.67744496       1.98978528      11.51345733       0.24012851       0.79077610      -0.68995294
O        0.64086031       2.44498302       2.47003450       0.61024754      -0.87025642      -0.73076525
O       11.18100834       8.80414872       0.90589576      -2.08692242      -0.00775303      -0.02698907
O        2.86231928      12.11735057       4.48436861      -1.46425014       0.79494442       0.61751166
O        9.74497030       5.31898471       5.66478839      -0.46440965       1.75333503      -1.10709214
O       12.23201180       9.77421835      11.19008784      -1.14624984       0.46750370      -0.10867403
O       10.68047957       3.47089858       2.89496949      -0.49266703      -0.89916568      -1.66245191
O        1.32883607       6.68829438       4.03654419       0.15381546       0.03009636      -0.49481550
O       12.04256777      10.97207529       2.93504232       0.34873998      -0.02981111      -0.05211275
O        2.82158594      10.43567599       7.15547950      -1.89061996       0.25373257       1.41826036
O        8.46536306       9.02078742       1.55987843       0.21931915       0.99485673       0.46668114
O        8.22697092       6.42900414      12.09607866      -0.40684908      -0.38675863      -0.66866048
O        5.81343064       3.73464856       1.19614549      -1.34784878       0.22789259       1.41727934
O        3.55058337       7.51026036      11.54143960       0.15850876       2.03778769      -1.81721551
O        5.27702857       6.33585388       5.47646643      -0.69679347      -0.99113130       0.55248793
O        7.78040864       2.88491943      11.48337941       0.42136140       2.24156092      -0.11107666
O        7.10925086       4.04414823       7.94713228      -0.58849992      -0.17805286       0.29694334
O        2.65660447       0.04985976      11.55113719      -0.85842305       0.43659063      -0.26183204
O       10.28729710       2.85977706       8.14540910      -0.73669637       0.41345766      -0.08955286
O        0.40054286       9.86052882       5.51802282      -1.52787501      -0.37066184      -0.87917177
O        7.92525483      12.14879346       3.56506129      -0.80708189      -0.26919933      -0.81032750
O        5.52278515       7.34858786       1.15132219      -0.44036923       2.08766805      -1.51218809
O        4.43005180       1.77314090       4.03497604       1.32321212       1.85379257      -0.74261184
O       11.73094949      10.30628544       8.14159362      -0.27325602      -0.49852242      -1.57558994
O        1.82370230      12.22093116       1.96834179      -1.18194989      -0.03551003      -0.65232712
O        1.91717398       5.72618022       0.56894441       0.85244692      -0.80172771       2.25497193
O        7.19461019      11.98997478      11.41746184       0.46081560       0.66419670      -0.01055543
O        2.31714891       9.87034284      10.28290626       1.30576450       0.21467088       0.34386755
O        0.32198418       2.59216682       9.59529845      -0.42673248       0.70153710      -0.13296049
O        7.62500978       2.18038245       5.78029122       0.16896072      -0.69913020      -0.87023016
O        8.86140957      12.23466031       8.85691315       0.48993349      -0.45509133       0.09122691
O        9.31392290       9.51212984       4.20916437       0.65213183      -0.22009923       0.49739206
O        5.09549477       3.58873635       6.18512176      -0.31386801       0.18600265      -0.35068481
O        3.81788521       0.29748364       8.96381452       0.29407911      -0.41052614       1.97113106
O        6.59373822       1.59774532       9.00985714      -0.30206369       1.43033232       0.04748085
O        9.92321569       0.76481534       2.13877545       0.61153724      -0.99724429      -0.04112029
O        5.99505994      10.33314851       1.48895653      -1.28544827      -0.08821218       1.13805392
O        1.26999279       5.12884962      10.54336575       1.90027132       3.26408141       2.90975672
O        4.79819616       7.68718606       8.24782150       0.39015877       1.28716332      -1.35920477
O       11.22733886       7.65039567       5.32955947      -1.01081791      -2.06626313      -0.71080190
O       11.86418623       6.19239248       1.54470277       1.44036521      -1.14905858       0.49906669
O        7.90585368       6.90037389       3.70758377       0.32601231      -0.88330172       0.32244042
O        1.12043644       5.10262673       6.49344056       0.65635054      -0.56117009      -0.22037448
O       10.59854100      12.25098247      11.70373507      -1.12627625      -0.26495221       0.33103975
O       10.18217279      11.87242215       6.18562984       0.97949912      -0.26454768       0.27100879
O        0.24636328       1.17416506       4.89725306       0.49386204      -1.79301184      -0.40472569
O        6.27099916       5.68301243      10.00775077       0.47425696      -1.76403685       0.84610824
O        7.76183726       3.94055643       3.27755288      -1.98247585       0.71713234       0.58520639
O        3.92736670       7.86016595       3.51780715      -2.13599872       0.64589577       0.83253682
O        8.00398444       7.46166299       7.34638367      -0.40130523      -0.00252463      -0.75586678
O        8.35842715       9.34057160       9.55569900      -1.12067364       0.87128496       0.77531560
O        1.37478551       1.09351141       7.62598844      -1.36256693      -1.46462566      -1.10212459
O        7.03772873       9.48742635       5.59712528      -0.25492767      -0.64811215       0.01214723
O        4.68681253      10.13950846       4.29052712       0.56680514       1.91245439       0.10431282
O        6.07839787       9.48847022      11.22337459      -0.93149674      -1.46495173      -0.11797775
O        3.93667231       4.23356103      10.23862280       0.46852257      -1.53238328       0.92463771
O        2.93158865       3.57140354       7.63552936      -0.11568463      -0.06730755       0.57921577
O        1.96253918       7.07393167       8.78186373      -0.13079879       0.07743365      -0.46087936
O       11.12398838       3.97120540      12.34115327       1.11845943      -0.73416259      -0.89879930
O       11.71119788       3.21187234       5.99409128      -0.50238666       0.29595704       0.84527930
O        2.87973577       4.25236712       2.89718615      -0.34788218      -0.64235884      -0.12965009
O        0.14686048       1.47762589      12.24269581       0.43754114       0.55422947       0.08362664
O        5.57873988       0.60090137       1.41947338       0.05430828       0.83426607       0.88280205
192
Lattice="12.429 0.0 0.0 0.0 12.429 0.0 0.0 0.0 12.429" Properties=species:S:1:pos:R:3:forces:R:3 energy=-938.7915719568211 pbc="T T T"
H        5.85474210       9.89560815      10.18241935      -1.00969901      -0.07095623      -0.21557417
H        5.19391115       1.64801998       0.08379544       0.28547865       0.16732568      -1.44525910
H        1.31345998       0.77446807       2.53889879      -0.03823016       0.28747798       0.14579070
H       10.08615653       8.29024486       1.03086736       0.05614065      -0.54620094       0.19491945
H        1.62771654       9.89349838       6.00940224       0.04535454       0.04934366      -0.29044882
H        9.25924267       4.66974487       6.56415528       0.54512566      -0.10142217      -0.04987189
H       11.16670749      10.80222336       9.97093218      -0.16284244       0.92756193       1.44386335
H       11.32484992       3.31378391       2.74353604       0.00232960      -0.02937167      -0.01445859
H        4.40752051       5.36996704       4.62505762      -0.88126426       0.13121043      -0.28278225
H        0.29174540      10.44319239       1.51316959       0.30950695       0.40715573      -0.15517971
H        0.92584225       9.72799896       8.11918515      -1.35255576      -0.24902078       0.31188734
H        8.90199012       8.44240281       3.15468161       0.21565002      -0.58937748       0.40803259
H        9.06218569       5.34070452      12.12872858      -0.05855078      -0.22461638       0.16688894
H        5.55038383       4.68276972       0.33629595      -0.79323697      -0.18892462      -0.44174708
H        2.77786191       7.17711775      11.19715024       0.05271403      -0.32974843      -0.24592291
H        6.05964982       8.86797607       3.71549809      -0.65986952       0.56335677       0.51053647
H        8.62120856       2.33031426      10.61604882      -0.66704587       0.21458158       0.65415129
H        7.77964784       4.62606847       8.76641028      -0.27429257      -0.06876187      -0.21396836
H        1.30390856       1.54144805      11.36328330      -0.25669983      -0.09817404      -0.14947306
H        9.36744747       2.56638988       8.21020027       0.02435969      -0.50407816      -0.28280436
H        0.88801222       7.92005396       3.13011793      -0.99767299      -0.46438392       0.49161858
H        7.18030608      12.19509537       1.41806181       0.05441889      -0.11229349       0.11086366
H        5.12048111       7.05967719       1.21276620       0.40453942       1.24114666       0.04807557
H        2.49643074       2.25825591       5.07578191       1.04638513      -0.43578574       0.04287653
H       11.57109673       8.31080146       7.26211355      -0.09714079       0.40582821      -0.25118350
H        1.88093037      12.41329477       0.51979915       0.31489413       0.43686142      -0.68956500
H        1.57750494       4.46021296      11.19672591      -0.49380536      -0.36732170      -0.69182963
H        8.17387496      11.24268397      10.98302501      -1.27613964      -0.39551739       0.49205769
H        2.14603842       9.71153598      11.05104942      -0.02302592       0.31030879      -0.23990717
H        0.79408939       0.69581324       8.33120937       1.51600541      -0.08470739      -0.70056203
H        6.79699547       1.81602487       5.62528887       0.42986148      -0.00769384      -0.18448202
H        7.09886511      11.66731016       8.47111949       0.58147447      -0.49979699      -1.09509546
H        4.39902509       9.29558977      10.31863957      -1.54940118      -1.33945296       1.94132440
H        4.93516598       1.46348750      10.91704608      -0.11796172      -0.55554968       0.19851959
H        0.39580461       1.83489130       3.24761667      -1.54903999       0.19599631       0.09974911
H       11.21895045       7.76752856      12.41072547       0.26921019      -0.62323413       0.63240976
H        1.95057079       9.75423175       4.48309550       0.23841071      -0.29654052      -0.34638876
H       10.72753881       4.14448523       6.19607587       0.80196201      -1.16672059       0.60875339
H       10.71475168      11.75452023      11.24486594      -0.82054419      -0.19195503      -0.02467508
H       11.56235912       3.18108632       4.32140064      -0.36006966      -0.69670602      -0.56300128
H        2.99016417       5.65337646       5.24700514      -0.32989703      -0.24829573       0.30240553
H       11.55023545       9.54956631       1.03809036      -0.71581372      -0.68071287      -1.67781960
H        2.25495342      10.18672398       8.77419498      -1.23725873      -0.57444599      -1.98062117
H        8.67253896       7.06504969       2.24947736       0.09265659       0.48339294       1.07555407
H        8.66764931       3.77476872      12.20348722      -0.09952133       0.02679546       0.16479039
H        6.88829344       5.14578888       0.71071542       0.39117917       0.08056228       0.36930204
H        3.48406023       7.87550107      12.38658584      -0.21791497       0.44509312      -0.66123597
H        4.87220058       9.93284306       3.69198225       1.37470936      -0.64424129       1.03983002
H        7.25289564       2.06472986      11.45213833      -0.21999705       0.03538970      -0.03625932
H        6.30407116       5.00039149       8.58488633      -0.32505594       0.48340841       0.09715502
H        2.32284125       0.49585386      10.74522323      -0.32717271       0.55624591       0.52584910
H       10.46021149       2.72843496       9.24998345       0.20115739      -0.00918808       0.14046477
H       11.85917365       8.38695620       2.95733320       0.66268022      -0.99539425       0.38533568
H        7.66104379       1.22306599       1.69804366      -0.38566756      -0.12368961      -0.17160750
H        5.66334767       8.57259803       0.90615560       0.29981972      -0.16533739       0.08398072
H        4.07673028       1.90933035       5.09816935      -0.45277865       0.05344496      -0.31975211
H       11.22903186       9.82065127       6.92961053       0.23739111      -0.79680699       0.81186532
H        2.40772292      11.49682981       1.65908895       0.59334302       0.03734149      -0.02043865
H        2.09662939       4.31064536       0.22971554       0.11827694       0.51442648      -0.03974123
H        8.15168491       9.91513666      10.39469167      -0.70460393       0.06855866       0.23030344
H        1.02551573      10.75673260      11.15034883       0.05329960       0.15117346      -0.65203065
H       12.09793200       0.50673912       9.26452585      -0.86066143      -0.58029372       1.04273929
H        7.42951658       0.65050146       4.90994949      -0.30112810      -1.63462653      -0.35448387
H        7.39374671      11.47417836       6.90170722      -0.70831028       0.25608404      -1.27355012
H        4.90939372      11.69580387       9.43590704      -0.08788442       0.95204824       0.19528158
H        6.24910360       2.68869725       7.72015133      -0.23828531      -0.50901201       0.07189353
H       10.61013393      11.33754048       2.44890013      -1.33694703       0.22950262      -0.35344770
H        7.69792998       9.48540669       1.59867152      -0.48002736       0.53012605      -0.68709072
H        0.53836588       2.99234416       9.40522444      -0.07596152       0.74570043       0.09860029
H        4.95568758       8.16962659       6.72598897      -1.40154484       0.48028011      -1.89816677
H        9.85754263       9.95819291       5.02865882       0.47983906       0.33754735       0.41122233
H        7.07260682       4.88580399       4.65404127      -1.20677792       1.13920569      -0.97196847
H        9.48753127       5.19279460       3.68995361      -0.73550082       0.04097133      -0.13866208
H        0.74975906       5.90965269       6.38855413       0.10909403       0.13808442      -0.25757470
H        9.05400307       0.88230639      11.98327889       0.24708817      -0.93301564       0.51297581
H        8.81007140       1.24916408       6.20763806       0.70500235      -0.54322798       0.76998422
H       11.25282306      12.11841559       5.55052789      -0.68441917      -0.36092157       0.06204754
H        5.87860006       7.21658073      10.08451058       0.09721912      -1.21009939       0.26461069
H       11.94082051       7.13139922       4.86280317       0.10664073       0.16232870      -0.38596168
H        0.97371724       6.24964716       0.29438456      -0.52138880      -0.19722075       0.65691668
H        7.07200528       7.90318562       6.94448986       1.07811228      -0.11011381      -0.06826807
H       10.10217393       9.23547128       8.76057158      -0.57780802      -0.58922312       1.16618323
H        1.98110089      11.97521947       7.15929100       0.29439479      -0.02582452       0.31341926
H        8.01303266      10.77826769       4.94065360      -0.29540199       0.72759627       0.05185668
H        4.53371053      12.25055782       2.51320233       0.27043603       1.35890827       0.48436733
H        9.31360006       7.50112443      11.77341291       0.27420074       0.94488520       0.71993230
H        9.37927800       2.53448841       2.88653423       0.54226769       0.15840020       0.15910931
H        3.13937477       7.77013545       3.62610546       0.02855313      -0.52227707       0.24524536
H        1.78957571       6.36646939       9.70726686      -0.39124005       0.07778448      -0.22150370
H       10.30003025       4.25540978       1.02811142      -1.86917369       0.19370109      -0.48741042
H       12.25144953       2.40419330       6.71435374       0.23397242       0.76764269      -0.76206684
H        1.94262269       3.19383901       2.65728380       1.25429054       0.49960281      -1.27532591
H       11.28997401       1.41495262      11.92014652      -0.15007544      -0.08640094       0.14073936
H        5.66637606       2.02753527       2.87994408       0.28182239      -0.68232176       0.29639375
H        4.70947233       3.51652941      11.16399466       0.42317063      -0.54951687       0.35649490
H        3.63184629       2.85995579       7.79473636       0.28965936       0.04598236      -0.15578063
H       11.09403373       6.32469780       6.03017918       2.05232446       1.44598278      -0.88851794
H        0.24221886       6.63783379       1.67618294       0.26162101       0.54408809       1.34061431
H        8.31500269       4.80980907       2.70233478       0.54168109       0.34753763       0.69551420
H        1.67236541       5.32792573       7.52033130       0.10714463       0.11172115      -0.94982578
H        9.59850746      12.26981099       0.72622599      -0.33357841       0.10096369      -0.64897526
H        9.03822151       0.31410879       7.49469861       0.30874348       0.35476055      -0.84420912
H       12.01048993      10.87863702       5.03939411      -0.96725547       0.13148867      -0.01679372
H        5.86535396       5.64618147      10.51730455      -1.35904729      -0.53165653       0.26747928
H        8.01015059       2.21977861       3.42051237      -0.24833498       0.08602860       0.64835811
H        3.33401148       8.73229664       2.48784723       0.13920279       0.02574984      -0.42108916
H        8.40605704       8.51130992       7.48926778      -0.50972013      -0.96195924      -0.80858627
H        9.37456790       8.25062940       9.89046703       0.62690491       0.61158625      -0.55409202
H        2.57669339       0.90036373       6.69262703       0.18721107      -0.13858602       0.74206212
H        6.55677190      10.55663006       5.07697111      -0.13219705       1.03631711      -0.28688331
H        5.13213719      11.09299342       1.70895667      -0.67218893       0.17782920       0.60033711
H        8.02055373       6.69737618      11.19211247       0.33492695       0.32205535      -0.07115701
H        3.74837330       4.68406986      10.98207620      -0.77269676       0.47816170       0.22446550
H        4.19276914       3.42487079       9.12366581       0.88611566      -0.12064998       0.78329620
H        2.37195384       7.43854244       8.68806603      -0.08874391      -1.13846557       0.57466274
H       11.73642439       4.74522604       0.89656810      -0.39221347      -0.74842976       0.93404978
H        0.66464947       3.66068249       6.29744005       1.50650143       1.53629520       0.76895689
H        2.76789803       4.46286062       2.90852053       0.30273290       0.27741303      -0.19976259
H       11.69743316       2.90359561      12.21345020      -0.21952281      -0.88841297      -0.31229824
H        4.30713588       2.55811826       2.79259875      -0.52655430      -0.62001575       0.48418834
H        8.73666953       8.86113353       5.51367945       0.23017951      -0.28495021       0.47552939
H        6.38692069       4.43017705       5.73743763      -1.05623603      -0.43281108       1.54594423
H        4.07243079       0.25546852       8.67883978      -1.08406408       0.31867673      -0.59825010
H        5.68196473       1.16582740       7.80634345       0.28309581       0.87921616      -0.02378540
H        9.86194230       0.15372598       2.94693261      -0.27267285      -0.26700510      -0.19984019
H        7.37071450      10.25639145       0.24737330       0.61346103      -0.05672431      -1.33480213
H        1.85294090       3.62412147       8.99358200      -0.50612512       0.68366267       0.43317141
H        5.26992693       8.61218319       8.14099381      -0.16400752       0.66470815       0.51432161
O        4.95374283       9.76787706       9.74722435       2.70914870       1.40480615      -1.60508042
O        5.38202407       2.00674074      11.59238158      -0.04771863      -0.14845908       1.16352643
O        1.28644160       1.50155025       3.20771530       1.52175739      -0.32993067       0.00290541
O       10.50823324       8.40050045       0.14556673      -0.28621990       1.06362721      -0.49502644
O        1.30656086      10.10812015       5.10764862      -0.40180633       0.39523968       0.59214660
O       10.04197548       4.76877539       5.98901472      -1.20548810       1.45853036      -0.51185330
O       11.43149919      11.50481841      10.63211110       1.33637748      -0.81731497      -1.55908262
O       11.22524522       2.69392052       3.51850034       0.20934954       0.44795602       0.56841630
O        3.45145168       5.56961072       4.39530016       0.98738728       0.24149392      -0.22835763
O       11.89586565      10.01594297       1.78132441       0.41567409       0.82363075       2.03865237
O        1.83190441       9.87579183       7.87309533       2.38428521       0.61883235       1.66899944
O        8.84512565       8.03705582       2.26191062      -0.09528004       0.49060968      -1.09662934
O        8.88008483       4.57212044       0.31677033      -0.43155753       0.31290438       0.11046342
O        5.97401320       5.15543661       1.05606536       0.37443244       0.30913997       0.26009567
O        2.99153491       8.05346546      11.53303473       0.56643950       0.26558817       0.99993285
O        5.52164178       9.44402605       4.32086703      -0.89945894      -0.14195120      -1.45755876
O        8.20155736       2.29431495      11.53561314       0.94610070      -0.25027686      -1.18225626
O        7.01919710       4.52330526       8.15799886       0.70499965      -0.68417016      -0.15704495
O        2.20211549       1.16739926      11.46058830       0.42488744      -0.55565578      -0.29855674
O        9.53821803       2.97426214       9.07605566      -0.16943348       0.22147195       0.25400934
O       12.37203047       7.57237595       3.27149118       0.53163860       1.59504918      -0.98691840
O        6.86624028       0.68495966       1.44846937       0.18394299       0.20230848      -0.03397607
O        4.93431165       8.05061209       1.29156834      -0.59143764      -1.25524933      -0.01148062
O        3.26140657       1.96302040       5.63540076      -0.97224932       0.45534519       0.15005616
O       11.39128651       9.18516878       7.69615743      -0.03747247       0.64996336      -1.11631784
O        1.60729065      11.89948260       1.29153872      -0.70309055      -0.55726444       0.62056496
O        2.03249301       4.94688943      11.90066653       0.53922878      -0.19903655       0.43239582
O        7.49439514      10.49159834      10.91854339       2.14671259       0.49036386      -0.97744971
O        1.80691282      10.52288790      10.59741903       0.01680541      -0.43134212       0.91541809
O       12.36369926       1.05237108       8.52918919      -0.98931151       1.09938174      -0.15792939
O        7.57729569       1.58273600       5.05250394      -0.50426293       1.56380128       0.49890098
O        7.69002660      11.25268816       7.78500438       0.13458219       0.12662353       2.72700196
O        9.17258491       9.33186792       4.76906630      -0.87096609      -0.34598677      -1.17177051
O        6.12349023       4.97232185       4.99436377       2.33804895      -0.51251064      -0.51554688
O        4.80792352       0.25824862       9.29787978       0.74460763      -1.42842872       0.44166039
O        5.72556450       1.98883454       7.25770010       0.31507931      -0.08954565      -0.15638524
O        9.70229927      11.79807738       2.37917739       1.69119922       0.03009918       0.48998626
O        7.03890464      10.06946191       1.12153481      -0.41836108      -0.71899657       2.01020743
O        0.95418973       3.89660602       9.37937268       0.63357254      -1.38298991      -0.20527764
O        5.50881558       7.98857735       7.44948227       1.15749019      -1.03756915       1.32137927
O       11.94546005       6.93985354       5.82348880      -2.55657626      -1.57833093       1.82344220
O        0.11541399       6.33612991       0.78380726      -0.16761967      -0.36537231      -2.17645212
O        8.60091589       5.49000703       3.37511804       0.03288432      -0.69944776      -0.58502532
O        1.52745768       5.31377571       6.53577775       0.22760310      -0.24760298       0.99601207
O        9.47451259      12.40043798      12.15763516      -0.13481609       0.72525367       0.31675264
O        9.51584407       0.91384621       6.85771848      -0.70338792       0.41429697       0.12901398
O       11.06787169      11.21501662       5.20784421       2.02413935       0.09020029       0.16300717
O        6.38769439       6.44208316      10.42485763       1.20877832       2.02888015      -0.38399922
O        8.44515436       2.59561119       2.63685287      -0.16330810      -0.08229439      -0.57961280
O        2.66131711       8.44845552       3.12311329      -0.14655199       0.17251235       0.20940253
O        8.08177310       7.85418914       6.79917712      -0.16420711       1.19224591       1.05695041
O        9.56507803       9.19096981       9.63416103      -0.17340269      -0.42835633      -0.51988608
O        2.32542599       0.38419550       7.53443630       0.25319517      -0.28425066      -0.93642923
O        7.20242041      11.33121942       5.16431147       0.41456024      -1.46523864      -0.13908581
O        4.35515341      11.34437696       2.27934267       0.43102855      -1.66176182      -0.94995061
O        9.00144547       6.70194326      11.34143773      -0.94532094      -0.98292006      -1.42556012
O        4.67074656       4.44253376      10.86181025       0.50403539       0.06730960      -0.29278807
O        3.52977109       3.55799339       8.46385087      -1.30029597       0.06895350      -1.16380991
O        2.48797510       6.51271850       9.05434269       0.21189476       1.09956085      -0.43821572
O       11.18410290       3.96156121       1.25275420       2.83402434       0.71149363      -0.49510648
O       12.40577671       3.08949716       6.00257024      -1.89051411      -2.26335177       0.24528029
O        2.59654115       3.83175560       2.17186909      -1.20623199      -0.95932852       1.28569304
O       11.78468904       2.15763765      11.54561436       0.37941963       0.83253935       0.13645566
O        4.78046407       1.78786972       3.21066640      -0.00544285       1.25470288      -0.82688787
192
Lattice="12.429 0.0 0.0 0.0 12.429 0.0 0.0 0.0 12.429" Properties=species:S:1:pos:R:3:forces:R:3 energy=-939.7644560758614 pbc="T T T"
H        5.56286222      10.06991689      11.30525686      -0.63348988      -0.14880547      -0.13342491
H        3.88794225       3.23078966      11.69737872      -0.06360099       0.54435223       0.43007077
H        0.53361861       0.80422666       3.44387242      -0.43231743       1.20340970       0.34892045
H        9.94372544       8.01455899       0.67310568       0.07350421       0.54796401       0.01453035
H       12.42400808       9.04084549       5.64106592       0.27682114      -1.51719117      -0.97174609
H        8.01691529       5.16327043       6.00321081       0.54916000      -0.17534870      -0.88116037
H        1.05486106      11.20141029      10.41253487       0.39914763      -0.92226045      -0.31564606
H        9.17386220       2.85159746       2.70008225      -0.05474040       0.67846260      -0.70747397
H        3.31909639       5.15473299       4.10654605      -2.16117609      -0.82069894       1.60151181
H        0.63908034      11.03093999       2.75819720       0.52663962       0.07866976       0.15295951
H        0.36072931       9.22293857       8.93544248       0.54807245      -0.19801728      -0.44840356
H        8.90447802      10.06876465       1.62921456       0.21267386       1.05701723       0.25555336
H        7.46529926       4.76467100      12.17939757      -0.71778183      -0.20915802       0.33923149
H        5.67594027       4.57311908       1.83929951       0.28451353      -0.18160054      -0.18145735
H        1.17355626       6.04089447       0.14176315       1.96288328       0.47234776       0.72511003
H        3.48566260      10.47155495       5.91524464      -0.10362973       0.22790399      -0.32792375
H        7.82939941       1.86790137      10.22130677       0.93843109       0.05778895      -0.99263293
H        7.93151076       3.49312949       7.69302857       0.08138277      -0.27751471       0.13044893
H        3.20963383       0.22623819       0.45108401       0.06742711      -0.10044058      -0.09939672
H        8.71672308       1.44635411       7.86243934       0.29274008      -0.79073299      -0.62968462
H        1.25254907       7.62239604       4.00727262      -0.40689417       0.91903258      -0.22144520
H        6.59455385       0.59772198      12.35512296      -0.76127927      -0.52669478       0.91478958
H        4.72159226       6.31958988       1.99941269       0.34858776      -0.40902453       0.23150527
H        0.58349701       1.05897342       5.64928081       0.04124147      -0.13027724      -0.12882398
H        9.54363324       7.74518957       7.47378067       0.98428587      -0.51086952      -1.38898563
H        2.65711915       0.06951794       2.88294116       0.43366950      -0.34672608       0.34876001
H        0.70336372       4.07313493      10.75366114       0.00734934       0.40515159      -0.10579803
H        9.41737372      11.49983874      10.82832399      -0.38815039      -0.92387034      -0.28740292
H        1.84412903       8.04939333      12.01656112       0.01701586      -0.09953468      -0.14526711
H       12.01783112       1.70339426       7.73292025       0.16007005       0.00971449      -0.01639427
H        6.33419931       1.90126514       4.99970888       0.38238333       0.02474985      -0.00593429
H        7.89952744      10.58080652       8.12691771      -0.01569467      -0.26483253       0.50790531
H        4.23906896      10.77007871      11.74502502       0.07562925       0.14793104      -0.40858117
H        4.61991988       2.96731011      10.37666904      -0.23710577       1.57005289       0.64963551
H       11.49259498       1.15600310       3.42646338      -1.64979925      -0.40843433      -0.15766616
H       11.19604898       7.14043650       0.42981841       0.04122004      -0.40222237       0.29977253
H        0.98204899      10.10150436       6.18870768       0.82040606      -0.10556035       0.09056930
H        9.28092650       4.63885585       5.16933536      -0.61181007       0.27966570       0.23737118
H       12.33873226      12.08573184      10.77727645       0.13052174       0.18125714       0.27207979
H        8.45674014       1.82403874       3.66395005       0.64653686       0.09424959      -0.51841489
H        1.96884430       5.37489518       5.05307295       0.21450007       0.01194806       0.08497543
H        0.63324524       9.99547032       1.63932435       0.23368197      -0.02838248      -0.54839664
H        1.48778813       8.87775693       9.80488322       0.80371285      -0.11309523       0.70417945
H        8.52727516       8.70738986       2.28852669       0.08656968       0.42458646      -0.53122569
H        6.02923733       4.12647212      11.99084779       0.04401095      -0.03691595      -0.18089639
H        6.25184086       5.55753517       2.79913530       1.73674765       0.84562205       0.27337709
H        2.72976972       6.57396077       0.80227412      -0.40867034      -0.34498820       0.49108534
H        3.61454860       9.49275756       4.73715047      -0.07645012      -0.75766507      -0.65197888
H        7.67796920       2.47869636      11.66790198      -0.59813848      -0.40223503      -0.79325051
H        7.02453159       4.67440343       8.18040131       0.20698799      -0.73590221      -1.15759467
H        2.05493530      12.09024202      12.05368866       0.13492387      -0.20509088      -0.02254107
H        9.76964270       2.33306845       8.54983438       1.23118152      -0.10487331      -0.04261877
H        0.28014997       8.82080344       3.43903562       0.46761765       0.15729599      -0.21757723
H        6.06444371      11.73159337       0.74731177       0.07896622       0.25117897      -0.16655692
H        4.64968898       7.84549236       1.62567278       1.22289657       1.83519091      -0.41051445
H        1.58024416       1.77148947       6.60547426       0.28474462      -0.36816817       0.04471046
H        8.18909120       7.61260588       8.11910343      -0.77402357      -0.25993642      -0.16420237
H        2.63547634      11.37022376       4.03849668       0.65919256       0.04952249       0.17865194
H        1.03185306       3.64890925      12.19062117       0.05822124      -0.06581321       0.21003973
H        9.83162246      10.10531585      10.21962533      -1.25663625       1.02183719       0.07060899
H        2.85636947       9.13982056      11.62750982       0.01254677       0.12564935      -0.22242885
H       12.17888000       1.49993700       9.24197758      -0.36572124       0.28098644      -0.49460356
H        6.41416462       0.51342280       4.34041237       0.59668371      -0.35743427       0.18387277
H        6.44830425      11.20677687       8.04371982       0.28937929      -0.28300172      -0.19114190
H        4.89494254      11.49858566       9.53148594       0.08177648      -0.42699313       1.23724528
H        5.68875152       2.65166156       8.50069238       1.66143549       0.69429182      -0.26846576
H       10.35234138      11.52672885       2.56230314      -0.61023000       0.81259006       0.15426849
H        7.71340773       8.95127802       0.15297151      -0.40491330       0.14280877      -0.57493505
H        0.52327532       3.53720273       8.86302340      -0.26876273      -0.33838368      -0.45262343
H        3.98851204       6.34581876       6.63554638      -1.01507923       0.10940147       1.08701172
H        9.40050145       9.90681093       4.56305788       1.79127255       0.94443267       0.83074092
H        5.44137442       4.01401140       4.59488640      -0.03851313      -0.16514506       0.20401695
H        8.33974842       6.23361222       3.30207018       0.95393168      -1.21131607       3.05173952
H       12.13965849       6.02417968       6.33671645       0.45230356      -0.78337871      -0.35714875
H       10.36174698       0.86188173      11.89057851      -0.05111439       0.56832668      -0.04267280
H        8.41440063       0.68162504       5.80616707      -0.25322093       0.11059259       0.16239574
H        9.94966885      11.96943378       5.30837568       0.45946783       0.04862334       0.53475066
H        6.72639596       7.95763462      10.55703584      -0.87999017      -1.12623784      -0.77911914
H       11.09977845       7.36815284       5.19844188      -0.29237657      -0.01628193       0.03789069
H       12.25105989       5.17382536       2.13408760       0.71941387      -0.54330687      -0.05816002
H        6.23934411       7.82829769       8.10843445      -0.07663730       0.48545253       0.34988915
H       10.61195768       8.16822085       9.79273315       0.07653596       0.26939788      -0.43565248
H        2.06065006      10.31067414       8.17979318       0.40639551      -0.59006025      -0.26584757
H        6.88994611      10.28780054       4.32591655      -0.60468097       0.62381639      -0.10362411
H        4.19165813      10.42814384       1.75632027      -0.96635664       0.24539383      -0.31531851
H        9.07297181       6.57211724      11.57405389       1.49077685       1.31074395       1.11129299
H        5.18667151       0.89200702       2.22880566       0.53976396      -0.42702643      -0.87318722
H        3.74558079       7.51473930       4.85209164      -0.51548533      -0.05950976      -0.20125138
H        2.87854422       6.36337200       8.92939572       0.11379974       0.52989963      -0.23981277
H        9.92129646       3.78481954       0.94325634      -0.02567887       0.49070548       0.18523564
H       10.44644220       3.02071692       4.62851844      -0.34770490      -0.84337392      -0.62178549
H        0.39112502       3.21588745       2.89994028       0.20115656      -0.51319678      -0.19659627
H       11.32933961       3.32105292      11.85342550       0.32086914       0.18243857       0.36658570
H        3.61536780       2.15577490       1.56395239      -0.29787174       0.26913568      -0.98881520
H        4.05580453       5.23633033      10.47836376      -0.04749227       0.21437542       0.29409112
H        3.59573942       2.55039473       7.55279742      -0.30149432      -0.14337270       0.01280545
H        9.89051172       6.37851705       5.46146125       0.17090257       0.54370772       0.37709039
H       11.81981812       6.58064455       2.61444531       0.10293030      -0.50981325      -0.76126537
H        8.53236028       5.83704337       1.83417175       0.13921984      -0.55021973       0.04395758
H        0.57595842       5.11137622       7.21098610       0.22937826       0.03283759      -0.99290832
H       10.41651022      12.12237570       0.39771415      -0.43076639      -0.50911535       1.66784999
H        8.44224463      11.87778256       6.65678641      -0.46484626      -0.48369548       0.37496702
H       11.38430101      11.19102897       5.27115135      -1.18990009       0.03147420      -0.28081431
H        5.40207672       7.05087003      10.12976703       1.48661860       0.21642710      -0.26175093
H        4.63085499       1.81095881       3.27469029       0.11946251       0.90560740       1.18295204
H        3.44874939       7.76922543       3.34125583       0.24968023      -0.08799457      -0.58227921
H        6.61692213       8.95186069       6.97320664      -0.39347912      -1.07959008       0.96088725
H       11.39206251       8.47224617      11.01561820       0.05173682      -0.00566047       1.14892478
H        1.95613450      11.66947744       7.46236599       1.19041571      -0.95552353      -0.51257446
H        5.46562205      10.95663326       4.73801758      -0.06733022      -0.70688591      -0.25695116
H        5.46650254      10.31429880       2.53439663      -0.23561922      -0.69442440      -1.09360010
H        8.06673231       6.39703127      10.48734962      -0.03424179      -0.80967318       0.72813336
H        3.13591183       6.42683943      10.92749685       0.60746484      -0.19663928       0.09932732
H        3.07640253       3.49336639       6.45024203      -0.17536764       0.08709550      -0.39613834
H        1.98381516       7.32792135       8.00176976       0.38533346      -0.18252194       0.37808300
H       10.13915083       4.71827463       2.26182926       0.20735676      -0.13737018      -0.74427317
H       11.68445069       3.62367097       5.22709951       1.01857905       0.46976893       0.21919119
H        1.52144459       4.21369955       3.17674751       0.43145571       0.22618757       0.58214326
H        9.98775967       3.40950858      11.22460770      -0.79456920       0.40402000      -0.48500847
H        2.42046543       3.10656901       1.40370270       0.22142640      -0.19847506      -0.51041357
H        8.73542802       8.47932760       4.77885142       0.67980927      -1.64264406       1.49589375
H        5.60871829       3.50900387       6.07765774      -0.28826073      -0.05749900      -1.04917732
H        4.28526783      11.40802522       8.19167268      -0.67564767       0.20458107      -0.57161061
H        5.11449435       1.18284546       8.79999281      -0.33472567       0.77235119      -0.59907890
H        9.36302636       0.37902181       2.31620729       0.17272693       0.70819740       0.72997096
H        7.82917457       9.52567529      11.10760854      -0.11444669       0.10265577       0.58602064
H        1.95065522       4.08310103       8.65535858      -0.41522740       0.04423206      -0.11944908
H        5.26080515       6.85431558       6.03212992       0.83122015       0.60774885       0.45526912
O        4.66048922      10.32780692      10.97066528       0.55707067       0.02754044       0.48560200
O        4.39174565       3.73931342      11.01742387       0.37888113      -2.45599759      -1.02984234
O       12.32210842       1.57623833       3.59231978       2.07684301      -0.89842372       0.06297579
O       10.60779715       7.77457751      12.42395783      -0.04215554      -0.36296622      -0.03632788
O        0.06067381       9.86847371       6.07426275      -0.92664388       1.83597147       0.98005337
O        8.51104489       5.27813862       5.13629296       0.13943385      -0.27301972       0.54607593
O        0.85385579      12.13157065      10.50396756      -0.77078729       0.68201501       0.18246997
O        9.27499865       1.96947905       3.10360615      -0.81797479      -0.93402632       1.52967446
O        2.49382502       4.70898628       4.55943409       1.89171384       0.65537886      -1.61712292
O        0.11035157      10.30059936       2.38628378      -0.63355164      -0.17211305       0.25575862
O        1.35038423       9.11231433       8.86739145      -1.63007281      -0.03314007       0.15166866
O        8.71087404       9.15554173       1.42308703      -0.26596759      -1.39012791       0.59627939
O        6.79218224       4.15218386       0.17347532       0.51353564       0.34999073       0.00243068
O        5.45772565       5.06295517       2.65928640      -1.24659232      -1.18364170       0.00483027
O        2.08360031       6.48381928       0.06282378      -1.62184023      -0.48213283      -1.00526697
O        3.77679254      10.42575145       4.97054879      -0.20008652       1.37986846       1.38228654
O        7.28557325       1.85089476      10.99901045      -0.44507940       0.22930844       1.71500457
O        7.18426916       4.07181912       7.39130785      -0.57388628       1.25770975       1.19624219
O        2.81509381      11.80616703       0.18135273      -0.07110575       0.38463014       0.23018100
O        8.83138772       2.23689314       8.40207752      -1.26075334       0.78771871       0.77418387
O        0.32394320       7.92383920       3.83811361      -0.41903677      -1.10956974       0.52047640
O        6.00965844       0.27873143       0.68475336       0.66138481       0.21269813      -0.73165963
O        4.15123351       7.05816170       1.71401245      -2.10623809      -0.74283840      -0.00668711
O        1.06130651       0.93097760       6.48604518      -0.53951302       0.25133129       0.18921586
O        9.01937739       8.07798975       8.18155253       0.15979348       0.90503792       1.74845766
O        2.10157621      11.98301170       3.48904201      -1.40356710       0.45071805      -0.52587251
O        0.34104125       4.08936496      11.67272830       0.40470616      -0.10443190      -0.10457071
O        9.02246707      10.72754227      10.30915858       1.46825289      -0.44730823      -0.07421910
O        1.91071876       8.91977562      11.54929450      -0.05904105       0.40727579       0.11836858
O       11.74575308       2.10542553       8.58925539       0.37503441      -0.50711685       0.63481296
O        6.97325435       1.15399374       4.83074400      -0.58684781       0.36181950      -0.41329652
O        7.11908796      10.65457268       7.55548689       0.05488652       0.49834127      -0.29719893
O        8.71284110       9.30057080       4.34899745      -2.57784204       0.73899063      -2.21422863
O        5.24837147       3.25004195       5.17986534       0.42077547       0.29229305       0.82521442
O        4.93619195      11.94615921       8.67489545       0.49255281      -0.02366113      -0.26616050
O        4.89938804       2.15004525       8.58069799      -1.20064733      -1.28351160       0.76530927
O        9.67878551      11.95985766       1.98390730       0.65030703      -1.91823879      -0.74198572
O        7.21270682       9.01500229      11.70579137       0.43357940       0.38640379      -0.43340203
O        1.04947416       4.35366147       8.94736489       0.36808974       0.07010451       0.41752020
O        4.45041859       6.38997397       5.79795369       0.41077073      -0.46397404      -1.24657056
O       10.45805327       7.08464602       5.88499573       0.25097668      -0.19572653      -0.56856737
O       11.67213860       5.91071827       1.88171100      -0.36324251       1.42672903       0.91507806
O        8.12211008       6.46638214       2.44510303      -1.50715629       1.84738580      -2.81629356
O        0.39821200       5.30623358       6.23996923      -0.57289360       0.74353254       1.30862260
O       10.51116711      12.33752432      11.90292913       0.66352988       0.43617097      -1.93658919
O        8.97963674       0.23596300       6.48108033      -0.07346954       0.56698429      -0.25643670
O       10.54449805      11.41328334       4.76317548       1.17862461      -0.52022384      -0.56646238
O        6.37176824       7.26974927       9.85701276      -0.60377671       0.65486432       0.84870693
O        4.36605226       1.11028771       2.69467035      -0.42095018      -0.30034307      -0.18317423
O        3.19450775       8.09057592       4.22065184      -0.13399084      -0.79178051       0.57855195
O        6.31569082       8.00692884       7.14705198       0.21790575       0.34578457      -1.24697326
O       11.29630975       8.78979902      10.11588598      -0.43561542       0.12533200      -1.30374842
O        2.52877018      10.82902500       7.45618727      -1.08228672       1.99695687       0.26760137
O        6.14647659      10.88599029       4.02948594       1.13793919      -0.07037270      -0.10394358
O        5.03751224       9.99577822       1.64360155       1.14710066       0.36744128       1.52601065
O        8.55380028       5.88892280      11.19943985      -1.35762302      -0.85098117      -1.79137026
O        3.91187369       6.21213084      10.35009164      -0.69303643       0.13240825       0.03683878
O        2.75756498       2.87165873       7.12436148       0.42395123       0.39515030       0.27265975
O        2.67820390       6.63841242       8.00475877      -0.13546914      -0.21709998      -0.66067894
O        9.48279914       4.21169625       1.73892587      -0.38320323       0.01730660       0.72771266
O       10.73878538       3.59843406       5.33422054      -0.97423452       0.12887777       0.30258825
O        0.98163090       3.85235859       2.44388567      -0.39656930       0.05088220      -0.43794923
O       10.37736291       3.10779442      12.04415923       0.36844964      -0.96102541      -0.31394089
O        3.11032370       2.65819361       0.84042530      -0.20005961      -0.09123196       1.24757262
192
Lattice="12.429 0.0 0.0 0.0 12.429 0.0 0.0 0.0 12.429" Properties=species:S:1:pos:R:3:forces:R:3 energy=-938.8220068795513 pbc="T T T"
H        6.13342239       9.22849966      11.59171952      -0.53273862       0.61296511      -0.69607587
H        5.35767102       2.08396354       0.13407524      -0.33582622      -0.02662882       0.24807298
H        1.35580165       0.56763046       2.76565179      -0.27490413       0.54981377      -0.08305453
H        9.48436791       8.15739148       1.08568506       0.31357261       0.25566400       0.17473927
H        2.38067867       9.69825944       5.39812331       0.18479077       0.02695310      -0.35997902
H        9.22657549       6.16171810       6.70806531       0.65423576      -0.46480657      -0.30324651
H       11.07853766      10.84683673      10.45164838       1.28925338       0.74526550       0.02411453
H       11.06772767       3.03921230       2.49763126      -0.91857248      -1.23415291       1.67182660
H        4.61665803       5.04063317       4.37620396       1.09231651      -0.17971382      -0.07752767
H       12.36860001      10.76684755       1.81148116       0.57305289       0.47615364      -0.04545488
H        1.41278816       9.23396545       7.97325497       0.03727789       0.08691912       0.22896911
H        8.89239264       8.72472134       3.19678943       0.27020632       0.02051387       0.66813318
H        8.95912324       5.15848904      11.35495908       0.50943012       1.10808603      -0.92109623
H        6.85731317       4.91805482       0.49131636      -0.00170188      -0.40409273       0.48051365
H        2.77848602       7.54669112      12.02934079       0.15783458      -0.07728561       0.00002366
H        6.89436272       8.81479348       4.72788972       0.62208489       0.20819972       0.35987612
H        8.75410280       2.15259744      10.50416766       0.05410866      -0.22457240       0.58217115
H        9.14041360       4.24769519       8.70554080      -0.59631532      -0.06744360      -0.45113703
H        1.40014057       1.62642648      11.80951970      -1.05891349       0.67422437      -0.78061895
H       10.03243716       1.57276262       8.37642457      -0.42366542      -0.13490214      -0.43055361
H        1.55882207       8.38653902       3.30374207      -0.52429146      -0.07020810       0.10158155
H        7.13619661      12.11869345       2.68452024       0.29428366      -0.12529527       0.98824466
H        5.40732647       6.76841494       1.33832598       0.61542582      -1.81201990      -0.38023221
H        2.30663493       1.07583019       4.95067376       0.71424816       0.22328193       0.12694783
H       12.14041579       8.58043655       6.99213190      -0.00000320      -0.87865951      -0.75798352
H        1.71601100      12.24358278       0.76791919      -0.20905606       0.44807257      -0.55950706
H        2.43189904       5.10543604      11.46761006      -0.28165019      -0.40131451      -0.58307984
H        8.04463802      11.51181845      11.58519605       0.16678860       0.01402106      -0.59274082
H        2.00780268      10.30716539      11.60424839       0.36654911       0.17727650      -0.47501423
H        1.38455003       0.36981535       8.51050696      -0.89001958       0.11539225       0.21464845
H        6.90152559       2.55365713       5.57366984       0.55494179      -0.98072488      -0.74942476
H        7.34185978      11.30072040       9.08045768       0.45133223       0.54794150      -0.60299264
H        4.72970820       9.04071551      10.94452891       0.19602856       0.09830210       0.03190989
H        5.25989455       1.21913461      11.23559430      -0.01378018      -0.09279104       0.10596864
H        0.24595553       1.43878158       3.41049592      -0.45255944       0.24127358      -0.03588187
H       10.79269554       7.82427310       0.17032325      -1.35817888       1.12977797       0.64905238
H        2.25962208      11.03051301       4.57704396       0.45375136      -0.11065591      -0.20861604
H       10.18523270       5.00479724       6.12359787      -0.60601327       0.47985391       0.09091811
H       11.29460206      11.91913827      11.54099396       0.23083297       0.33506260      -0.31258053
H       10.67882485       2.63457461       4.06033936       0.10620411       1.19135071       1.54417174
H        3.25987218       5.03116272       5.01868497      -0.75029795      -0.18542520       0.54618464
H       11.32686552       9.70509774       1.56209873      -1.18007909      -0.91275307      -1.46907504
H        2.04086724       9.47772790       9.33510383       0.34465292       0.30185949      -0.09976262
H        8.42849532       7.33485849       2.61552124      -0.21157713       0.66503572       0.35158281
H        8.57459514       3.76398027      11.80891941      -0.08883369      -0.30375782       0.21700607
H        6.26045115       4.13443841       1.70568362       0.68835885      -0.84176270       0.67599073
H        3.57337112       8.43510232       0.50989511       0.75487141      -0.23999879       0.99524843
H        5.43439075       8.94220556       4.57907550      -0.36205826       0.57459639       0.53104707
H        7.49825911       1.99223505      11.45663988      -1.60237696      -0.49650337       0.00400565
H        7.82173401       5.07587559       8.46626623       0.00851019       0.18044355       0.28876062
H        2.63964162       0.81380228      11.24861879       0.15303100      -0.55980374      -1.21591162
H       11.01741022       1.96867298       9.43987640      -1.25625235       0.34507389       0.03821441
H        0.14650567       8.86849454       2.88651212      -0.82531622       1.60480625      -0.44743650
H        7.61963698       0.58741018       1.48906691       0.23871599      -0.03053982      -0.04948315
H        5.75512449       8.33309092       1.29363966      -1.76178177      -1.74692690       0.80180167
H        3.75261553       1.54836516       4.80362398       0.69733631       0.37252787      -0.69161472
H       11.93965020      10.09756111       7.06326217      -0.26249311      -0.18251493       0.20247528
H        2.35475026      11.43004530       1.87764477      -0.95426280      -0.10877468      -0.45695301
H        2.61778014       4.82299669       0.56266807      -0.12645950       0.39760638      -0.14736956
H        8.89091103      10.91898307      10.42460202      -0.20502778       0.43207376       0.11603371
H        1.00288933      11.21389483      10.87195372       1.28419139      -0.44159209      -0.30785344
H        0.08015906       0.18910387       9.37679661       0.04099640      -0.04951644      -0.02039083
H        7.04258009       1.07319839       4.81544565       0.69431769       1.75427386       0.63374352
H        6.68397380      11.10330487       7.74957117      -1.34672895      -0.62568602      -1.02584382
H        5.04805732      11.40069666      10.40611650      -0.65668961       1.22188229      -0.45146935
H        7.06306961       3.15674987       7.66941075      -1.80412122      -0.37103620      -0.40564965
H       10.48591213      11.47483195       3.23992541       0.69796835      -0.22850869       0.08650986
H        7.35301314       9.49436134       1.35946453       0.41702068      -0.07201400       0.26531135
H        0.90722318       3.87964159      10.10486270      -1.36206816      -1.56646851       0.18261090
H        5.01822102       7.22713445       6.18603149       0.91195836      -0.12899498      -0.25946427
H       10.05145878       9.65781990       5.18295097       1.10267183       0.95296412       0.03348152
H        7.06013760       5.15109233       4.46947485      -1.22802760      -0.89278656       0.59809747
H        9.17935190       5.86845605       4.08729531      -0.66614759      -0.07442806       0.03413011
H        1.01736744       5.72406193       6.05789690      -0.23339377       0.40842210       0.30329910
H        9.70385515       1.21529471       0.22959957       0.29601306      -0.30010535      -0.47704576
H        9.02876687       1.03159337       6.33012485       0.83716129      -0.02759234       0.09117981
H       11.61402417      12.19468007       6.04867626       0.04973993      -1.82214324      -1.19441807
H        6.20102376       7.60547469      10.16906310      -0.51708041       0.58773634       0.14187235
H        0.20488197       7.46238946       4.95105939      -0.18431941       0.35164250      -0.77341317
H        0.58291819       6.18990290       0.14652296       0.24114384       0.20691627       0.25956143
H        7.73100232       7.51598786       7.27243868      -0.74907893       0.38825002       0.36614714
H       10.71100578       9.16676848       9.01478584       0.39618696       0.54103755      -0.27202393
H        2.81650607      11.05561904       7.65471343      -0.21542550      -0.70643725      -0.00116507
H        8.04709019      11.56670449       4.52365138       1.15246690      -0.24691567       0.26115228
H        4.31649260      12.25119897       2.32955993      -0.29904727      -0.36536693       0.05451128
H        9.13279005       7.58908388      11.42435806       0.28826736      -0.41076679      -0.46633430
H        8.45969435       2.37252914       2.63254687       0.69581931       0.11737243      -0.13003150
H        3.70311989       7.35190209       4.39157925      -0.01222071       0.68262200      -0.33119737
H        2.67930210       5.97543276       9.00465937       0.87984353       0.15150106      -0.82920009
H       10.11306027       4.40386210       0.96234522       0.09883003       0.46095568      -0.37857126
H       11.19617150       2.52911283       6.36758863       0.08142443      -1.04419082       0.98465544
H        2.02258049       3.14484099       2.64643930      -0.33361634      -0.27583743      -0.27285071
H       11.62401340       1.82886903      11.88089244      -0.68134736      -0.38798612       0.81556941
H        5.46098507       1.44559693       2.21908277      -0.16129763       0.45122437      -0.40313171
H        5.39760032       3.53697984      10.77099679      -0.28282846       1.06449838      -1.18967968
H        3.08897337       2.38035847       7.15595231       0.08786467      -0.24615248      -0.27101878
H       11.53550790       6.82701302       5.86142963      -1.52033237      -0.65319087      -0.19819939
H        0.58483991       6.99502683       1.48954341      -0.73239643      -0.30371213      -0.47284089
H        8.51709948       4.90697548       2.99808210      -0.28860268       1.46369977       0.71982350
H        1.80805241       4.57662396       6.83025563      -0.23020161       0.18495516      -0.28019699
H       10.23156410       0.25901966       1.34478282       0.58275716      -0.16294246      -0.57678330
H        9.29122393      12.36009748       7.32700191       0.61322732       0.35622216      -0.40486268
H        0.20508347      11.02781005       5.48267246      -1.24560032       0.73080004      -0.22820141
H        5.90066484       6.02463009      10.06088937       0.74307210       1.06792804      -0.33956313
H        7.36005855       2.98270469       3.33377189      -0.72645159      -0.04326967       1.35513946
H        4.02135399       8.12464193       3.14745471       0.33470192      -0.00698449      -0.43638125
H        8.57188135       8.49960305       8.17255440      -0.42673798       0.83299666       1.02162074
H        9.81307980       8.74501444      10.13334257      -0.35273600      -0.89183712       0.63022906
H        2.91082218       0.06129993       7.01211440       0.11896035      -0.92772618       1.22048622
H        6.67151946      10.84182074       4.65645852       0.12326062       0.08250279      -0.13533565
H        4.67937661      10.74376538       2.11479769       0.79451404      -0.66035273      -0.26295621
H        8.44005551       6.92427100      10.20179942      -1.71444355      -0.25546166      -0.61571165
H        4.15768449       4.37115989      10.54161141      -0.12075225       0.22969648      -0.15042999
H        4.11118225       3.32757753       7.92604741      -1.51553152      -0.42767316      -0.48962437
H        2.54160289       7.30673267       8.36385608       1.06838200       0.12313709      -0.31367529
H       11.54311768       5.16651048       1.28057794      -1.03007391      -0.70820887       0.18114771
H       12.15456136       3.71605796       5.94701940      -0.11111618      -0.21574217       0.10811102
H        2.91892161       4.35775600       2.94048909      -0.04912061      -0.14059085      -0.64356213
H       12.18179626       3.25415286      12.35531481      -0.53088160      -1.06650277      -0.34886889
H        3.97288348       2.25744078       2.05185223       0.78025592      -0.13605169      -0.02502681
H        9.29184045       8.57987227       5.93423267      -0.36642098       0.08814919      -0.11655158
H        6.21111609       5.06112761       5.78924357      -0.08842060      -0.21149391      -0.43038609
H        3.94958542      12.09510318       9.50782787      -0.08707472      -0.00236129      -0.13766682
H        6.27582544       1.84253368       7.61969105      -0.14432583      -0.84170690       0.22820926
H       10.35161640       0.66853185       3.18598998      -0.23791559      -1.06742845      -0.21674212
H        6.55594995      10.82148248       1.05177528       0.28227835      -0.75204592      -0.28019273
H        2.19090982       3.86191308       9.06608044      -1.00625196      -0.52383173       0.57450011
H        4.96945949       6.73406198       7.53319050       0.73278334      -0.45594119       0.31237287
O        5.64178380       9.35371720      10.73111144       0.04055091      -0.45366548       0.51864815
O        5.82276559       1.84286541      11.75895687      -0.12782465       0.00115078      -0.58055969
O        1.20572692       1.40891323       3.28507113       0.60574645      -0.50939582       0.22572168
O       10.02785960       8.48859521       0.32947514       1.51927630      -1.12165079      -0.69155699
O        1.88505557      10.52491170       5.30720477      -0.38051055       0.06658377       0.43849581
O        9.79426292       5.90289315       5.94767087       0.65803807      -0.34063618      -0.12044553
O       11.73035723      11.59876745      10.71173592      -1.40472630      -0.99094726       0.43706542
O       10.77965791       2.27881712       3.19459663       0.81292111       0.28387147      -3.04635260
O        3.70215822       5.32995284       4.21994244      -0.43858797       0.54408402      -0.28600703
O       11.70499739      10.21305243       2.25714618       0.49309592       0.12321094       1.23568206
O        2.29085305       9.19540935       8.42304762      -0.43708953      -0.16211446      -0.05225704
O        8.44426145       8.32866121       2.43794546      -0.45963637      -0.86375365      -0.57451382
O        8.74846163       4.68989832      12.14768739      -0.40415060      -0.15317310       1.16964509
O        6.07713488       4.82025928       1.08373342      -0.69499920       1.47636650      -1.36730248
O        3.13602592       8.45208578      12.09571979      -0.86339021       0.23676669      -1.12670956
O        6.17646738       9.35798888       5.09567942      -0.33117104      -0.85899837      -0.70707277
O        8.39000644       2.31371593      11.41847211       1.96834462       0.01347809      -0.65430882
O        8.42655005       4.44257769       8.05001424       0.32484524      -0.20770022       0.34779888
O        2.21157515       1.17151534      12.01054660       1.06483629      -0.13176058       2.15689051
O       10.04747701       2.08824166       9.20335280       1.71325012       0.16719123       0.42249484
O        0.60907354       8.12975028       3.27473538       1.77120778      -1.77938317       0.57752613
O        6.86528296       0.10856676       1.84864232      -0.71346629       0.14717505      -1.21844038
O        5.06410614       7.60517209       1.60409924       0.88430913       3.58672654      -0.09420016
O        3.18915142       1.08824770       5.41992991      -1.51841775      -0.46418155       0.45127771
O       12.01466408       9.29460852       7.62731465       0.01364698       0.98436066       0.41508932
O        1.43541958      11.70059563       1.53368592       1.16404970      -0.35463248       0.69495386
O        2.52440968       5.54753646      12.31907572       0.00684756      -0.06173339       0.58267876
O        8.28844099      11.66936426      10.64687460       0.07362574      -0.62491572       0.62204935
O        1.98204741      10.90172128      10.81933085      -1.64421168      -0.21561919       0.61918221
O        0.48731315       0.77245205       8.70617915       0.42173604       0.05101856      -0.26846576
O        7.50938129       1.97234121       5.01026221      -1.11519173      -1.18770289       0.24905178
O        7.47717054      11.45948285       8.10436838       0.90315948       0.26351082       1.24148866
O        9.28594079       9.10603520       5.09988986      -0.65675354      -0.63587193      -0.21275198
O        6.29839292       4.60668874       4.91496321       1.11715150       1.29981779      -0.19809387
O        4.67909544      12.29945411      10.12207894       0.88591655      -1.10930169       0.66318962
O        6.13722369       2.76653203       7.40744979       1.91548866       1.17395392       0.41002854
O        9.98352207      12.20182236       2.86547342      -0.91023601       1.61619191       0.33835296
O        6.64379886       9.85277127       0.79502047      -0.19733821       0.83932416       0.35810186
O        1.66685076       4.31962802       9.78592576       2.48711987       1.79060152      -0.68536240
O        5.62924892       6.75056583       6.79109943      -1.33529976       0.49594801       0.14752288
O       12.40327465       7.21507565       5.85922820       1.44915139       0.47931362       0.80433570
O       12.40752996       6.62470007       0.78705102       0.44178092       0.13810738       0.26942731
O        8.38732424       5.80780337       3.48829732       0.87397509      -1.53384213      -0.78965553
O        1.21524859       4.77318270       6.07105693       0.60179235      -0.90227522       0.01264869
O       10.44790610       0.59586278       0.40938631      -0.80256497       0.26085899       0.50786299
O        9.80613446       0.61269315       6.80512393      -1.84762585      -0.19904519       0.19645304
O       11.66850649      11.36120759       5.45064433       1.16806512       0.85782834       1.30645392
O        6.50316329       6.78500549       9.76264828      -0.06570670      -1.95450276       0.02679921
O        7.88352517       3.14517320       2.55216498       0.33942991       0.06740487      -1.04881376
O        3.78290137       8.30354273       4.07660235      -0.39982417      -1.09481733       0.51432069
O        8.60584045       7.88289392       7.45922731       0.64108309      -1.10824577      -1.19681503
O       10.22971488       9.53721589       9.78141489       0.05272057       0.69879513      -0.65144290
O        2.80495975      11.98852295       7.88789273       0.49444246       1.66901388      -1.18675389
O        7.13002336      11.66000456       4.29505236      -0.98520088       0.26872091      -0.05913629
O        3.95382348      11.32473420       2.29697883      -0.51819184       0.98313595       0.51803050
O        9.29469044       7.15887005      10.53608640       1.05205927       0.33411820       1.02950477
O        5.03309772       4.25664462      10.13800437       0.48048819      -1.21759349       1.30135076
O        3.12847532       3.18193394       7.69472055       1.58866010       0.89042239       0.77072479
O        3.17538138       6.53315731       8.33618996      -1.78837044      -0.22454373       1.10232556
O       10.95409445       4.35698606       1.46543518       1.07535234       0.22282055       0.18364167
O       11.25359592       3.31124361       5.84328520      -0.01800010       1.40914474      -0.92362906
O        2.54347404       3.82501086       2.17831679       0.41283987       0.19773503       0.65973474
O       12.21986264       2.54496479      11.66017315       1.15009448       1.59659975      -0.34125704
O        4.57573387       1.67005895       2.57033004      -0.50705845      -0.27877386       0.58130972
192
Lattice="12.429 0.0 0.0 0.0 12.429 0.0 0.0 0.0 12.429" Properties=species:S:1:pos:R:3:forces:R:3 energy=-934.6552126971552 pbc="T T T"
H        4.24092402       7.96800923       7.75099500       0.16875109      -0.24879166      -0.18574353
H        5.89558240       8.22710692       9.98569367      -1.11059386      -1.05934430      -1.42174105
H       11.84895470       6.85420711      10.53720351      -0.17037821       1.43078123      -1.78870729
H        6.93151838       8.28517219       6.18090906      -0.78854561      -0.39251564      -0.20682250
H        3.87511494       8.22816272       0.02870720      -0.58606789       0.08343258      -0.70007340
H        7.18480669       0.65903360      11.23838688      -0.40665374      -0.54473324      -1.44291350
H       11.65990306       1.28773585       4.32126408       1.28625734      -0.93099971      -0.49063421
H        6.31486736      11.37554088       6.04969770       0.18474161      -0.15267093       0.61936286
H       10.36615962       8.14013192       8.91978602      -0.93309643       1.39915375      -1.49442572
H        9.74860377       5.60298516      11.69020487       0.52176053       0.01824796       0.66524043
H        4.87037156       0.59690294      10.06177143       2.07321224       0.18801104      -0.41598277
H       10.23950605       4.42240719       6.90328661       0.60170341       0.00385100       0.07637764
H        3.05533411      10.43419244       3.78470696       0.76838067      -0.96653697      -1.12508314
H        8.73657914      10.80402173       5.17224046      -0.56725846       0.29242594       0.71872810
H        7.26876463       6.65392012       3.67648408       0.25163713       0.16957995      -0.85879922
H        8.64735612       8.67009537       0.28550600       1.19081958      -0.75076687       0.33565754
H       10.63170624       3.03541444       1.46886329       0.95673134       0.02173970      -0.59093383
H       11.97537007       8.29353627       6.81571890      -0.62000298       0.17524701       0.84271671
H        9.22712169       1.44313922       9.25059193      -0.29450598      -0.93997170       0.21430531
H        9.00206922      11.98161844      12.35958112      -0.00903376       0.14433773      -0.27513523
H        4.38505544       4.81758700       5.72857248      -0.06701063       1.18956784       0.18318469
H       10.60246560       5.35155272       1.53080448       0.02588244       0.01499530       0.31948551
H        4.31457297       6.25498201       9.70037199       0.28092085      -0.41653325       0.12130569
H        4.85270248      12.21871849       1.73630357       0.44473736       0.56745412       0.07370264
H        9.59926504       0.13838321       4.81902055       0.37791203       0.91477676      -0.18173784
H        0.47717047      12.28774658       9.87975890       0.04320002       1.12507269       1.01001355
H        0.17249611      10.14748869       1.76124072       0.40669068      -0.24589479      -0.85519676
H        2.18334889       8.08184558       3.63533220      -0.03341760      -0.92618291       0.60059554
H        7.57780916       9.33963050      10.77042798       0.27954035      -0.48652080      -0.32864114
H       11.95618834       9.19492165       3.92446638       0.00358629       0.31020002       0.47852738
H        2.15431282       7.67428880      10.07282726      -0.11438038       0.17682258       0.08568652
H        5.80814208       2.37528998       6.50248198      -0.08063680      -0.37477552       0.51004699
H        3.00905641       7.04051824       7.49863667       0.17132681       0.52499722      -0.54929671
H        4.41756756       8.41466680       9.94149069      -0.06366107      -0.35149335      -0.21403647
H       12.22517384       8.26182213      10.57425166       1.66714811       3.07125259       2.40239415
H        6.57961352       6.94685813       7.01989263      -0.71492564      -0.42445555      -0.26366970
H        5.22092084       8.24313373       0.70871743       1.37507789       1.27528639       0.19727037
H        6.70505660       0.75977023       0.25333035       0.20617045       0.24880180       0.09124824
H        0.05575815       1.85386403       3.25727726       0.50480468       0.71478761      -1.07049266
H        6.76387422       0.40934348       6.34970278      -0.17111329      -1.16352174       1.04787737
H        9.36166696       8.09711871       7.65457947      -0.37376306      -0.30599381       0.07161604
H        8.46469608       4.90316613      11.20398471      -0.42102411      -0.46973197       0.13803437
H        5.76777056      12.35046110       8.94905542       0.56461077       0.86634572       0.92075972
H        9.27873038       3.59987739       7.95629055       0.42430453       0.52894986      -1.47863165
H        3.71735414       9.79171687       2.45002633      -0.07471464       0.42026078      -1.27035117
H        9.72224972      10.45988634       4.16669370       0.77539500       0.16194220      -0.77110797
H        6.05966002       5.96758715       4.09090477      -1.53116187      -0.56348979       0.84786090
H        9.51365492       9.73412901       0.81290073       0.80146910       0.51857263       0.34551417
H       10.16572528       3.57650380       2.74792651       1.90510704      -0.14473481      -0.01246523
H        0.60884684       8.50341404       5.87627140       0.63319736       0.42999074       0.53714736
H       10.43994836       2.23562520       8.81158879       0.55257404      -0.21615682      -0.45150938
H        9.43975833      12.13890979       1.40685944       0.28517957      -0.37589568      -0.70292740
H        4.38371041       6.43854608       5.87950747      -1.90592348       2.17569529       1.77582937
H       10.57254931       6.86735185       1.01629985      -0.66350473       1.01414845       0.46743676
H        4.13163773       4.69025659       9.49321734       0.04030218       0.14453618      -0.08174790
H        5.93791180       0.15841383       2.86057912      -0.05102365      -0.05187416      -0.47259779
H        9.23039425       1.63377346       4.86440131      -1.20014001       1.18381055       0.04956906
H        1.24584020      11.24449361       9.12735262       0.16002951      -0.43194423      -0.17175492
H        0.71951668       9.02969566       0.80062311       0.01848821       0.35622996       0.27397963
H        2.28611534       6.73972769       4.47528325       1.09128445      -0.39764307       0.40384260
H        7.65762091       9.51121735       9.16079292      -0.47985055       0.45630910       1.94948021
H       12.05927072      10.69894425       4.56710861       0.17695767      -0.56408036       0.06834297
H        2.10169343       9.05644687      10.76632100      -0.20916090       1.29447540      -0.62399705
H        7.08151885       2.51093866       5.73721959      -0.11370025      -0.40322888      -0.49172693
H       11.70005933       0.06731058      12.25226374       0.04465989       0.18351545      -0.02382919
H        6.28887057      11.09169362       1.18092075       0.89112677      -2.58831716       0.68970553
H        2.83757902       0.78032895      11.37266024      -1.16543753      -1.98765160       2.32627954
H       11.75622995       6.58531075       3.84284427       0.27841341      -0.04423540      -0.12055226
H        0.06922672      10.88478564       6.80535936       0.52998349      -0.56608995       0.21643449
H        5.65157265       2.29663646       8.78542391       0.26410258       0.18653506       0.43966862
H        5.08884513       6.26986940       0.58737239       1.14556070      -0.77306232      -0.36325518
H        5.58168053      10.43042665      10.79716414      -1.93245003      -0.28028340      -0.63479811
H        9.66014148      10.64395531       7.39232165       0.49740616      -1.42577338       0.63523187
H        6.38451505       4.24254631      11.80746051      -0.31176202       0.78738065       0.21157209
H        7.86490307       4.39445393       4.11608084      -0.66423644       0.66263530      -0.32850860
H        3.79418069       1.50082455       6.94678422       0.16096201       0.69605320      -0.05677974
H       11.99352224       4.82166319       8.49282728       0.20394630      -0.16511224       1.30649606
H       10.36443576      11.97110397      10.25933622      -1.10281358      -0.04139788      -0.17143137
H        0.76711858       1.58996620       1.06070552       0.52712961       1.14210067      -0.16685983
H        7.88880278       5.20897233       8.22532686       0.44445240      -0.10371580      -0.23972797
H        1.64251251       2.76464609       5.80835685       0.49709956       0.18483123       0.15708835
H        8.23965363       7.09416365      11.03192836       0.84504712      -1.60599089      -0.43554060
H        6.69376528       9.99309606       4.08390644       1.71092679       0.71651846      -1.23237377
H        2.22105215       4.98057767       7.07820269      -1.26089754       1.07945271       0.69093628
H        1.06392716       3.24109690       9.42590369      -0.16539547       0.42588090      -0.43238199
H        3.95300728      11.29775386      12.29245418      -0.96259994       0.89964296       1.37864057
H        0.13536306       1.66627880       7.80287485      -0.01606358      -0.39875823      -0.75005975
H       12.22185627       4.86564277       5.62663359      -0.30704516       0.27208781       0.18048000
H        8.86358576       7.99068000       2.36992196       0.56828208       1.04695494      -1.57271074
H       12.34037919       4.08262370       3.07390652       1.35114371       1.45883925       0.97773116
H        1.92269861       6.42198363       1.16591593      -0.48340416       0.08274834      -0.39545116
H        9.13499318       2.12174891      12.29049966       1.46604404       0.54799129      -0.17150341
H        3.22553246       0.15604319       3.63296940      -0.37334843       0.43422902       0.14793005
H        2.70791801       2.01875177       2.49442657       0.75166770       0.32735343      -0.11072549
H        2.65642197       4.53343051      11.72021984       2.16996455      -0.45408838      -0.01445353
H        2.99806027      11.16001987       8.15319829       0.05961644      -0.83258252       0.55543673
H        1.11058624       3.04344191       0.55988883       0.12063024       0.31560290      -0.45080403
H        7.19333863       5.12490580       9.61142100      -0.23334411       0.10466790      -0.96919248
H        8.35845277      11.42871057       7.12013061       0.13134293       0.46635524       0.05290195
H        7.04753306       2.93713560      11.39236483       0.02846993       1.35246768      -0.78895638
H        8.34772275       3.80496505       5.44661027       0.72945558       0.70450977       1.15628270
H        3.44377508       0.22387538       6.20766915      -0.19582244      -0.32815164      -1.20803429
H       10.97794901       4.46653352       9.59920289       0.99006307       0.29183470       0.15586587
H        9.02584444      11.42610091       9.65524371      -0.03028528      -0.28815092      -0.13311275
H       11.83353244       1.71027693       6.35773447       0.13424905      -0.90854911      -0.06770447
H       11.41940501       6.16683505       5.85723732       0.10111131      -0.44853176      -0.01736416
H        2.60535733       3.40135403       4.82035930       0.02016804      -0.26548314       0.91855954
H        7.00944985       7.24688688      12.02458453      -0.05955645      -0.90282302      -0.01065028
H        5.16677239       9.75359844       4.05645072       0.85119296      -0.42048428       1.15374456
H        0.81346228       5.84465606       7.12764947       2.09806179      -0.59833648       0.85015940
H        2.05204457       2.87765386       8.24751677       0.15065491       0.52086775      -0.92114212
H        2.61337335      11.44680485       0.73911084       0.97313151       0.19043675       0.05825861
H        1.57818878       4.96428629      10.82595455      -0.01670574       0.02262916       1.12089490
H        2.87356406       9.72398727       7.67740924      -0.14393221      -0.29827122       0.60358242
H        8.57852943       8.74035372       3.71909110       0.05542967       1.47987247       0.16925320
H        0.89956976       5.33880945       3.03566349       0.11113560       0.33537008      -0.25833299
H        0.35210184       6.41134595       0.95750597       0.41857220      -0.21192011      -0.07518940
H        9.88747144       2.95993785      11.22141618       0.30435070      -0.48532432       1.38250042
H        1.80473863      12.34977619       4.20339543      -1.39769270       0.71014469      -0.02276468
H        4.29530368       2.19396512       2.76708210      -0.02043283       0.19580487      -0.57753944
H        6.20347413       5.71890282       1.48650228       0.49228447      -0.05585550       1.54908825
H        4.44024642      10.38328776       9.71280913      -0.29588685       0.14863782      -0.44333118
H       11.70566007       1.55665399      11.94093182      -1.03178172       0.82702788      -0.03164082
H        6.85581828       9.56273019       1.71061069       0.41488142       0.32086200       1.09611958
H        2.61491125       1.74173083      10.31157344      -0.24668164       0.81146053      -1.10667385
H       10.32304157       7.34576124       3.95945114       2.49801792      -0.28718398       1.15715973
H       11.32630937      11.68455111       6.38463880       0.96787876       0.38858799      -0.30216107
H        5.56046388       3.87235778       8.33179685       0.74448924      -0.41259563       0.33678225
O        3.62640558       7.68544906       7.03945337      -0.40100017      -0.16304345       0.55014963
O        5.08575035       7.86935790       9.46353454       1.04117275       1.18846077       1.56907188
O       11.85245880       7.70956479       9.96052313      -1.65746414      -4.61583695      -0.74476724
O        7.13506718       7.71654224       6.93581258       1.58713049       1.06233111       0.35395669
O        4.43770560       7.73318474       0.62638718      -1.42878516      -0.66933916       0.47392778
O        7.43563327       1.01290960      12.08391077       0.17818584       0.62762736       1.33227113
O        0.16157525       1.16491313       3.90666308      -1.64772649       0.13805777       1.34283341
O        6.76184759      11.87827817       6.77506603      -0.37778260       0.82619496      -1.37406284
O        9.83356094       8.71788442       8.22680522       1.13428537      -1.02263520       1.35815601
O        9.16266437       5.52260117      10.93237283       0.38061676       0.19824125      -0.83243185
O        5.87623644       0.53330969       9.74215998      -2.66594269      -0.66221152      -0.62861013
O        9.33257081       4.15715405       7.10383864      -1.51509392      -0.64745511       1.22499211
O        3.53923222       9.60371445       3.35994185      -0.60894899       0.57413624       2.13314700
O        8.86772424      10.93416053       4.22361949       0.04867461      -0.68988150       0.04110551
O        6.60498494       6.03075981       3.31112585       1.16375776       0.09656858       0.06740227
O        9.49903883       8.75848297       0.83299224      -1.69145401       0.02109204      -0.81302104
O       11.05910871       3.45517942       2.25413080      -3.57716267      -0.06351101       0.71372173
O        0.36355032       8.80632132       6.78986337       0.17780897      -0.65799825      -1.32371742
O        9.56130616       2.34190600       9.19372095       0.01252217       1.16449912       0.32496127
O        9.71863158      11.74324615       0.54416572      -0.02986098       0.05691336       1.29483493
O        4.79364259       5.69005158       5.52882383       2.06943075      -3.43376401      -1.91011952
O       10.90768723       5.98973868       0.87386030       0.53825359      -0.72859939      -1.11095033
O        3.86131715       5.44464577      10.03463159      -0.17958202       0.03286127       0.10428493
O        5.79334732       0.12993988       1.89159898      -0.62270702      -0.23654710       0.29403958
O        9.97286582       1.06322352       4.79957157       0.96748265      -1.64672042      -0.00435462
O        0.34613843      11.54789359       9.30610337      -0.47782575      -0.72704526      -0.57887365
O        0.58215341      10.00328880       0.86018615      -0.15721976      -0.05599392       0.73171482
O        1.67757555       7.36317175       4.10708016      -0.75954452       1.52019262      -0.50377263
O        7.34861421       9.93803001      10.03648676       0.29449295       0.16132695      -1.92275336
O       11.73723801      10.14262120       3.81135817      -0.40503479       0.15395502      -0.57448590
O        2.25023563       8.13760262      10.92249653       0.34753455      -1.31446800       0.53441382
O        6.34995821       1.87178642       5.84869314       0.20849103       0.67332284      -0.36075509
O        5.94038699       5.69740881       0.57677691      -1.20510693       0.35283151      -1.35457419
O        4.56402168      10.32911013      10.66816457       2.09399654       0.41736279       1.62764365
O       12.27802428       0.79630018      11.94080736       0.76493982      -1.35451596      -0.02137680
O        6.48500176      10.06794179       0.99731900      -1.02279749       1.82336993      -1.58619759
O        3.32017173       1.31562389      10.80581292       1.95773051       0.97701338      -1.10790823
O       11.30072445       7.25230525       4.38642645      -3.02791771       0.47142490      -0.98587685
O       12.30219638      11.59385891       6.17942325      -1.61492678       0.32432472      -0.05697118
O        5.34190058       2.94271002       8.12687785      -0.90687477       0.34693009      -0.86535450
O        1.20199420       2.45696128       1.31977705      -0.19936836      -1.38871115       0.68132084
O        7.06447872       5.42428450       8.67617310      -0.56206267      -0.12065918       0.77496734
O        9.34846462      11.52283577       7.22561979      -0.44181840       0.71240093      -0.54825597
O        6.94434694       3.90437540      11.08729474       0.21987999      -2.19250325       0.83861200
O        8.29885323       3.63486352       4.50687035       0.36299043      -0.99483509      -0.92645757
O        3.47884053       0.60844735       7.07552199      -0.19647548      -0.62259335       1.30229699
O       11.95407437       4.63722660       9.48080277      -1.21861438      -0.10523312      -1.23050122
O        9.37547658      12.08383272      10.27084061       1.15598849       0.40868666       0.10349926
O       11.96417487       2.14411240       7.20094613      -0.04380297       1.24510146       0.99469104
O       11.73148778       5.34912421       6.33828239       0.17895370       0.20621479      -0.42133429
O        2.51598218       3.22549953       5.79817781      -0.54228475       0.12646174      -0.96266423
O        7.64341365       7.69935769      11.45121402      -1.11906193       2.20018383       0.78924698
O        6.01337001       9.71467170       4.65605068      -2.54556411      -0.27329454       0.27620706
O        1.71527864       5.66721659       7.63286467      -0.54612886      -0.54868899      -1.53392064
O        1.77771140       2.65718986       9.12634037      -0.39619091      -0.78059476       1.21341356
O        3.54858446      11.79912695       0.67923179      -0.30711648      -1.53637151      -1.60350054
O        1.76324000       4.79621515      11.79123680      -2.26496871       0.27881472      -0.93394098
O        2.89292786      10.23043289       8.52640190       0.18650191       1.41342705      -1.50440913
O        8.60320819       7.90732026       3.27875690      -0.27842859      -2.20422859       1.62962022
O        0.48689652       4.71990425       3.65677077      -1.14670400      -1.41876262      -0.47945631
O        1.08738587       6.84833521       1.43142416       0.03437564       0.19953784       0.18475137
O       10.00963083       2.63470290      12.17765761      -1.89322974      -0.29848728      -1.23022343
O        2.67699336      11.98082695       4.17626670       1.48877164      -1.14683952       0.34764884
O        3.45959892       1.89008074       3.13322614      -0.69119806      -0.12273119       0.30051635
192
Lattice="12.429 0.0 0.0 0.0 12.429 0.0 0.0 0.0 12.429" Properties=species:S:1:pos:R:3:forces:R:3 energy=-938.8621298677672 pbc="T T T"
H        5.01451478      10.58898657      11.66490738      -0.28586065      -0.86232676      -0.72719734
H        4.78712483       1.97809092      11.78763643      -0.02474121      -0.19418624       0.90611138
H        1.41669820       0.56640352       2.74068856      -0.07003561      -0.71765441      -0.59679291
H       10.47207516       7.81215050       1.26679072      -0.13111219       0.07669428      -0.18549858
H        2.01878187      11.19786416       5.58378258      -0.92843372      -0.36861467      -0.32943066
H        9.35647560       5.86329579       6.93048518      -0.73802074       0.09602128       0.76718727
H       11.71786607      11.41213214      10.50873374      -0.06848615       0.29457677       0.30923108
H       11.00162463       2.55165253       2.98588863      -0.43173105       0.68754463      -0.58243267
H        4.01990854       5.13926427       4.79778914      -0.13134176       0.29881966      -0.58033120
H        0.57970548      10.43032342       1.94500390       0.07791635       0.16473970       0.01492665
H        0.85356614       9.63163763       8.31217323       0.86218424      -0.08925662      -0.12573239
H        8.96457605       9.25241755       2.82700829       0.06191647      -0.93380975      -0.06204266
H        8.97099900       5.18973239      11.58671644      -0.07009087       0.03223364       0.35339790
H        6.69427887       4.57087554       1.66478046      -0.02125673       1.13129504       0.42608009
H        2.38622887       5.60294879      11.96635156       0.00334736      -0.82691854       0.31863931
H        5.47314766       9.11668605       6.74367265       1.79000388      -0.72724014       0.69368353
H        7.39919464       2.35984622      10.66397719       0.58833307      -0.22519743       1.29704156
H        9.11976278       5.20889199       8.66263774      -0.65936566       0.16795665       0.06776736
H        2.49808830       0.84597158      11.08435659      -0.30395426       1.42948945      -1.11563058
H       10.00636979       2.86167859       8.23337970      -0.60054974      -1.24038953      -0.50757193
H        1.68452281       7.81938774       4.14876124      -0.92039344      -0.19042903      -0.35262121
H        7.49153770      12.20080672       3.00044824      -0.62856286      -0.03984645       0.81544311
H        5.32404123       6.75594894       1.27716946      -0.51913113       0.18021439      -0.04242430
H        3.04083308       1.25003220       4.39789219      -0.62908639       0.01388309      -0.37678066
H       11.18186772       9.17144417       7.53885363      -0.01338774       0.74004089       0.34919501
H        2.37579437      12.38200694       0.93391504      -0.36764482      -0.71383424       0.05427034
H        1.60163035       3.27264009      11.80080390      -0.03362042       0.14170100      -0.22770320
H        7.59718449      10.25293040      11.19249635      -0.70739635      -0.53551428       0.32537175
H        1.88403675       7.63853592      11.31639182       0.34578579       0.68499723       0.50982765
H        1.32056220       0.75088838       7.82576551      -0.52752988      -0.03753556       0.39306509
H        6.58074323       2.63092085       5.11321194       0.46162448       0.04879350      -0.24482472
H        8.04916328      11.26772820       9.21760683       0.21349454       0.00345859       0.35515034
H        3.61702903      10.80233366      11.26278816      -0.89422363       0.49483282      -0.30275103
H        5.00470659       1.56788355      10.32952736      -0.18823749       0.82990374       0.24504969
H        0.49140477       1.73110562       3.37036834       0.23458968      -0.37726393       0.15201654
H       11.72320367       6.91824970       0.93478197      -0.95220258       0.73154293      -0.37085404
H        1.91823434       9.76715328       5.07030847      -0.54636524       0.39667964       0.04640537
H       10.57880203       4.94002102       6.55397821      -0.95098358       0.82205152      -0.52898688
H       11.50467628       0.45604616      11.07575252       0.08628389      -0.46960256      -0.30432623
H       11.26978120       2.86679633       4.48893623       0.26135754       0.89200825       0.88215153
H        2.52529152       5.45902019       5.01143231      -0.55822437       0.15150392       0.18451512
H       12.00543395       9.34063949       1.44544011       0.48395726       0.32968388       0.83695770
H        1.79441522       9.31076111       9.48607432       0.18686773       0.15316834      -0.90122880
H        8.87091044       7.69390195       2.77788916      -0.26687679      -1.96159046       1.74128818
H        8.48185382       3.73048606      11.90253145      -0.50368480      -0.61164241       0.07080162
H        7.34790557       5.52681625       2.65665847      -0.48675164       0.35709627      -0.38110595
H        3.60628094       6.64801493      12.32263340      -0.72764895      -0.28192875      -0.55815542
H        4.30479651       9.06183169       5.78442880       0.07867252       0.61369204       0.52382121
H        7.07625106       1.75718750      12.03504323      -1.44995180      -0.73569635       1.18949656
H        8.51524332       6.40581636       9.43417885       0.10503797       0.16667346       0.11449392
H        1.62084295      12.00687614      11.05509569      -1.10533035       0.23602805      -0.41269946
H       10.75110255       3.77667488       9.10860198       1.57330208      -0.21946406       1.93503168
H        0.54988180       8.47472454       3.30604682      -0.18427203      -0.02633009      -0.13001690
H        8.36602476      12.29041105       1.88778461       2.12533148      -0.01958517      -0.95434641
H        5.25428215       8.03134363       0.42839545      -0.79409752      -0.45300861       0.27794781
H        3.96619257       2.02994482       5.32304830      -0.04611908      -0.21834099      -0.05561609
H       10.81757438      10.70134968       7.63477201       0.41850353      -0.83780522       0.74373304
H        2.77903618      11.42555457       2.11858471       0.28073523      -0.00932460       0.03364747
H        2.04344358       3.60534237       0.82537327       0.50548010      -0.06002528       0.44663728
H        9.07660680      10.33604665      10.99166347       1.66763624      -0.82752738      -0.01113870
H        2.24111000       9.01202979      12.00019793      -0.04261555      -0.35644541      -0.20974969
H        0.11955601       0.66818002       8.86678833       0.17396665      -0.09416931      -0.01393346
H        6.51120367       1.13414112       4.88163501      -0.63125618      -1.21183645       0.09115355
H        6.75630305      11.72912227       8.53971426       0.52750155      -0.03499490      -0.45404500
H        4.83483545      11.59779543       9.68019653      -0.36264159       0.34566177      -0.59064691
H        7.33207648       3.88177450       8.49698447      -0.51852108      -0.51667202       0.30824002
H       10.72471270      11.00054482       2.07317472       0.01626375      -0.01179204      -0.08282276
H        7.23540479       9.32757089       1.03123064       0.04052704      -0.62310376      -0.04115627
H        1.26863080       2.46005333       9.61936055       0.11499290      -0.34924360      -0.20341686
H        4.79870187       6.51801137       7.22877882       0.56649630      -0.33219749       0.40376136
H        9.20503109      10.96978702       4.73227763       1.37998081       1.61992249       0.22727056
H        6.51610001       5.11424747       4.68074338       0.60475804       0.30707488      -0.87742180
H        9.30796182       5.90377363       4.57338460      -0.25586104       0.09293960      -0.08597313
H        0.45248121       6.60907645       6.30182353       0.44407386      -0.54969624      -0.20177601
H        9.48689799       1.44105058      12.08921486      -0.32769665       0.28958804      -0.80517210
H        8.71726922       1.37336748       6.19337831      -0.07366636       0.13952604       0.80326348
H       11.41465734       0.26562964       5.34471258       0.27097705      -0.58800457      -0.01295697
H        5.66319032       8.67969275       9.95776416       1.31424493      -0.81116068       0.66046617
H       11.90182798       8.02531405       5.40951657      -0.00838121       0.21746865       0.91509311
H        0.76088747       5.54199017       1.35925410       0.75789269      -0.58896025      -0.40109297
H        7.63891300       8.04686855       7.41154968       0.21277863      -1.91689036       1.38802959
H       11.28352287       9.46754874       9.93794360      -0.20654086      -0.05506491       0.48107928
H        2.71149645      11.08602550       7.54803593      -0.23113403       1.46908348      -0.14134044
H        6.83366266      10.87050874       4.89644737      -0.21374155       0.89312584      -0.12505798
H        4.94799467      10.54537995       3.46338982      -0.22166557       0.33357544      -0.50427799
H        9.63238791       7.24961726      11.79172044       0.64187180       0.18282184       0.45629211
H        7.27236102       2.41598105       2.89354351       1.14642189       0.58240057      -0.64174926
H        3.46509320       7.24574486       4.61166625       0.28365642       0.79281176      -0.64594322
H        2.79201153       6.69930391       9.49553975      -0.07875683       0.24568053       1.12446369
H        9.86585488       4.19638313       1.01329850       0.32210545       0.48234318      -0.35922005
H       11.90974203       2.79073963       6.74633542       0.50212483      -0.12612135       0.46860100
H        2.50402489       2.65615500       2.64961842      -0.33971775      -0.31543941       0.16388561
H       11.15479578       3.27722414      11.29408709      -2.29938347      -1.14541943       2.26732488
H        5.79295111       0.87315562       1.68584811       1.57523514      -0.24778898       1.03705638
H        5.27241056       4.15781299      10.43603789       0.23266131      -0.27316961      -0.04448309
H        4.76555110       2.17145654       7.61451534      -0.85255457       1.20491941       0.49372683
H       10.91625579       7.32600548       6.35590390      -0.33402067      -0.55690193       0.05245163
H        0.53799127       6.31494537       2.76976884      -0.58825617      -0.43686718      -1.15753127
H        9.28960489       5.27797809       3.13661426      -0.55128491       1.38020557       0.75508630
H        1.65553333       6.15410421       7.07910196       0.59411001      -0.13803266       0.71350958
H       10.44048187       0.96167279       0.64845810       0.65380514      -0.40918900       0.38659488
H        8.61561090       0.48218751       7.45878020      -0.45329762      -1.04119491       0.47200829
H       12.06558295      11.21233092       5.41133731      -0.56780813       0.89110049      -0.45800318
H        6.20677207       7.25005154       9.81589156       0.19817513      -0.08321358       0.25616693
H        8.73915883       2.96498494       2.46031167      -1.63550572      -0.10904140      -0.27875440
H        3.84648945       8.63118071       3.79099382       0.29230068       0.09345185      -1.00635613
H        7.77632398       9.62594455       7.60856795      -0.22244509      -0.57924325      -0.01359431
H       11.40404876       8.98753894      11.47430421       0.20692686      -0.20065912      -0.14115239
H        3.13556959      12.36617982       6.63470537       0.38051034       0.11446471      -0.49838101
H        5.49794892      11.11995007       5.54161291       0.38530901       0.50501206      -0.27355775
H        4.78372401      10.00469927       2.00821223       0.33810627      -0.05825763      -0.07846728
H        8.16574607       7.53437809      11.44424288      -1.96085333       1.05375159       0.72787763
H        4.51826863       5.48987007      10.49648664       0.85235473      -0.41746071      -0.46052480
H        4.71971425       3.47151443       8.39749718       0.38280645       0.35668527       0.16431497
H        2.94900095       7.81252607       8.35389701      -0.49959763      -0.30732850       0.63009873
H       11.11198830       4.62169125       2.02986823      -0.13514419       0.00282432      -0.64286152
H        0.19705939       4.11708485       6.12980606      -0.89129234      -1.10229157       0.24752932
H        3.12399042       4.02513086       2.97522389       0.10933220       0.87848222       0.63877059
H       11.62884977       4.45887728      10.57107307      -0.31657719       2.78898799       0.02487356
H        4.54775910       1.87148042       1.70841117       0.86489731      -0.97880093      -0.37401189
H        8.49307627       9.81425265       5.40146408       0.45307431      -0.14503683      -1.18251475
H        5.87971621       5.05775231       6.05093363       0.07997673      -0.96451246      -0.71665836
H        4.25432078      12.34562517       8.40394994      -0.70707783      -0.25255002      -0.02511827
H        7.54212456       2.43212285       8.05132168      -0.52647760       0.21561040       0.46105523
H       10.72198794      12.26155725       2.91257797      -0.89994150      -0.54402633      -0.89387150
H        6.84122140      10.70925471       1.25003196      -0.14367546       1.01670604       0.06852347
H        2.81090286       2.53792036       9.65613596       1.84835850       0.78278857      -1.43923180
H        5.66251558       5.93748050       8.35460473      -0.05859599      -0.61294726       0.02575964
O        4.35971715      10.24189427      10.99121678       1.31008247       0.60659620       1.09256408
O        4.86732789       2.36708666      10.91328898       0.23296222      -0.77630338      -1.16748028
O        1.41709618       1.40899316       3.21280204      -0.05890967       1.39962093       0.93660329
O       11.06396341       7.58029766       0.51153153       0.75984579      -0.48812971       0.71204047
O        1.35687349      10.57045376       5.19882425       1.42211187      -0.22148607       0.15526742
O        9.99147293       5.70537049       6.23373436       1.49536087      -0.75511809      -0.50285333
O       12.03988885      12.33785433      10.43781407       0.07532699       0.09378882       0.01528695
O       11.19935126       2.16757721       3.84337665       0.09862930      -1.83796827      -0.70596718
O        3.24609850       5.60403534       4.36924433       0.84803655      -0.58475472       0.52728386
O       12.30833651       9.82603115       2.26978226      -0.41051469      -0.61292916      -1.16574225
O        1.82197253       9.46332747       8.48730960      -1.04815052       0.22769370       1.16188931
O        8.94326851       8.45138150       2.23892294       0.17514936       2.86327933      -1.78144727
O        9.17123387       4.38103638      12.10111072       0.39150232       0.87421129      -0.79920237
O        6.61998911       5.52143129       1.98859092       0.23945259      -1.18378979      -0.16005787
O        2.92853729       6.32838683      11.61677689       0.82532278       0.37924747      -0.15684206
O        4.75812075       9.65818998       6.46156760      -1.85027445       0.35719131      -1.02458690
O        7.76468744       2.22348316      11.60688990       0.64746309       0.79761220      -2.84623432
O        8.38831583       5.88911805       8.61634905       0.56326259      -0.53575914      -0.13854879
O        2.38801594      12.41119444      11.45467706       1.35101120      -1.90788487       1.60295442
O       10.19730042       3.78305651       8.35863084      -1.07732356       1.13359258      -1.35012023
O        0.74538434       7.65715905       3.82773671       0.77605058       0.36418314       0.41770794
O        7.44662052      12.38687585       2.06067311      -1.56016403      -0.42676290       0.23140677
O        4.65014124       7.39637255       0.89966661       1.49875020       0.15886399      -0.03629578
O        3.85173545       1.14962895       4.91515439       0.40043450       0.15669247       0.72789066
O       11.08847096       9.92387727       8.20041968      -0.12385614       0.16096230      -1.45971492
O        2.00931774      11.82172783       1.66973467       0.06478893      -0.05849436      -0.15978627
O        1.54060078       3.94909049       0.07417721      -0.24441193       0.50084135      -0.22692518
O        8.29729863      10.87081877      10.99908537      -0.64370215       1.31689921      -0.30791751
O        1.60841681       8.59740477      11.38719020      -0.36420602       0.20730791      -0.34185415
O        0.48871138       1.18937411       8.11731584      -0.42043614       0.45290013      -0.56502337
O        7.10441903       1.86995189       4.76625574       0.21638441       1.16306688       0.14934798
O        7.69469861      11.46115414       8.32414018      -0.68317085      -0.01504670      -0.05043095
O        8.79060147      10.16124829       4.50019676      -1.70534007      -1.70538577       1.13724378
O        5.93370054       4.53638237       5.16835886      -0.79630450       0.52055904       1.78566869
O        4.98999760      12.33104212       9.02790632       1.17980241      -0.09151395       0.94524325
O        6.91949548       2.98647127       8.61128659       1.34656630       0.21461063      -0.57162134
O       10.22238926      11.83723972       2.14135962       0.92146066       0.86486390       1.21900262
O        6.51379822       9.92824606       0.77262797       0.12237151      -0.35678237       0.10294032
O        2.06770793       2.26084997      10.13865802      -1.74286317      -0.09348054       1.70148979
O        5.70099703       6.15470295       7.40423718      -0.73273511       0.77034012      -0.54675991
O       11.68643078       7.92463509       6.38584647       0.33226933       0.19299782      -1.21855528
O        0.09780644       5.78125801       2.00339318      -0.06996949       0.93459892       1.39937619
O        8.88065565       6.05156328       3.68875558       0.94293559      -1.79356153      -0.76676538
O        1.16293054       5.89743000       6.29012490      -0.72870808       0.29398945      -0.21224788
O       10.44942598       1.33444756      12.18473970      -0.27099877       0.11971586       0.34251446
O        8.90290876       1.34858202       7.16820380       0.35338363       1.11043730      -1.10761954
O       11.27035373      11.74985531       5.12819356       0.00627128      -0.15272212       0.37730058
O        6.45221867       8.10035220      10.22173632      -1.64243280       0.97369078      -0.66479369
O        7.77794337       2.88618020       2.16005678       0.45888721      -0.30119431       0.93918863
O        3.41123250       8.26755234       4.56550793      -0.62777826      -0.98071276       1.30470725
O        7.60920905       8.87139390       6.98538010      -0.08618676       2.64989365      -1.40088519
O       11.15777436       9.71654824      10.88320163      -0.40471238       0.26204131      -0.19333279
O        2.62908914      12.09336759       7.41239764       0.44703094      -1.56150438       0.43213178
O        6.15283091      11.59571932       4.94586161      -0.10364787      -1.65015149       0.28157578
O        4.27724583      10.31895799       2.77457846       0.01459496      -0.20705877       0.62045876
O        8.93555127       7.11866995      11.13546672       1.44478955      -1.33032067      -1.23231733
O        5.32337724       5.06474474      10.07101977      -1.16281963       0.79316764       0.60153277
O        4.15008643       2.93406943       7.83619495       0.30931935      -1.49263269      -0.76129672
O        2.92978771       6.85377597       8.56829020       0.51246627      -0.06844993      -1.96295102
O       10.34959325       4.02656130       1.86067934       0.17812793      -0.35021643       1.70876034
O       11.88001858       3.44047338       6.03296240       0.76528541       1.58133261      -0.39544758
O        3.10529937       3.35128421       2.30118942       0.29901950      -0.74245874      -0.81976921
O       11.80762224       3.56796887      10.71946220       2.58144101      -1.47505825      -2.20443154
O        5.01570165       1.12277643       1.22451103      -2.62251578       1.48478922      -0.86107908
192
Lattice="12.429 0.0 0.0 0.0 12.429 0.0 0.0 0.0 12.429" Properties=species:S:1:pos:R:3:forces:R:3 energy=-934.6242888191065 pbc="T T T"
H        4.15993250       8.09935174       8.84639446       0.09162641      -0.52899674       0.54655501
H        5.51074754       7.09204498      11.16772885       1.46855102      -0.79618073      -0.66497080
H       11.44967748       7.46169444       9.38917436      -0.23848142      -0.01472407      -0.08741959
H        6.36598231       7.11360511       5.92147376       0.63490285      -1.41337265       0.53082714
H        3.40384572       9.39736210       1.04364980       0.14542643      -1.11033709       0.27157316
H        7.17399592       0.38137494      10.74352148      -0.54665954      -0.41398065       0.11085594
H       12.36321586       1.37315189       5.47432790      -0.22369478       0.19103025       0.83634659
H        5.96620929      11.19755666       6.12791755      -0.24935183       0.87874064      -0.20425841
H        8.77528960       9.28730183       9.22872104       0.13841217      -0.22060981      -0.53141870
H       11.19513696       7.15775398      11.76935867       0.82843502       1.73894691       1.96261186
H        6.80168424       0.09309739       8.74747660      -0.09061122      -0.60883243      -0.73061058
H       10.87339391       5.31872608       6.80568166       0.36866567      -0.25072416      -0.10969292
H        4.09072546      12.08145736       3.69013177      -0.20786806       0.45884782      -0.29823225
H        8.63891645       8.64658539       3.28269327       0.10340654      -2.28350357       1.02505148
H        5.98305142       5.14622071       2.76088846      -0.20597028       0.67736059       0.40099886
H       11.29366195      10.37332177       0.10691842       0.22705510       0.07956240      -0.04783054
H       10.77728860       4.28495627       2.82878141       1.08697280       0.81373488       0.28558435
H       12.17246194       9.65856743       8.24721620      -0.10451798      -0.35038194       0.16514533
H       10.22371406       2.82743506       9.94907400       0.08285658       1.21003046       0.94824046
H       10.15830158       0.25913550      11.74888271       0.44963870       0.23109028      -0.21058988
H        4.98292543       4.19069234       7.11999670      -0.91833542       0.87171596      -0.02520374
H       10.32558258       7.56020263       2.52134347       0.06084788      -0.03585064      -0.23997965
H        3.60283641       3.58884791      10.00281839       1.29956666      -0.35196732       1.48354092
H        7.12964541      11.53389838       2.69365312       0.05735566       0.25249600       0.74894018
H        9.59512113       0.99871134       2.47839660       1.05351053       1.01113193       0.54239623
H        0.36202331       0.31190867      10.55775864       0.12917838      -0.12149934      -0.22273995
H        0.10116804      11.28279387       2.51484022      -0.04387208      -0.36207237      -0.28494363
H        4.05233315       6.76762980       3.63455514      -1.24297699      -0.15497281       0.32306547
H        8.33376878       8.55175446      11.35398722       0.61388414       0.94438169       0.34694551
H       11.65261405      11.79130713       4.14490944       0.05835098       0.55230571       0.71335231
H        1.69069246       8.16274557      12.12708641       0.22905949      -0.73531668      -1.88325155
H        4.78789417       2.35439598       5.55741137      -0.55047346      -0.08169571       0.90256595
H        3.73944032       8.75431215       7.63258606      -0.53297584      -0.16902874      -0.58534370
H        4.75736944       8.37887611      11.48582780       0.17887422      -0.56621939       0.27215174
H        0.42316744       7.86248432       9.54567323       0.59252380       0.38171570       0.51015545
H        7.36267087       6.33477070       6.85556342      -0.28028365      -0.11087549      -0.27407579
H        2.38255838      10.52447554       1.12948757      -1.46421076       0.29801785       0.32981070
H        6.18127351       1.26360722      11.71889898       0.42442887      -0.68855598      -0.46945285
H       12.15194129       1.23297625       4.00909807      -0.46027343       0.50610186      -0.86862026
H        5.92531704       0.03783941       5.24341396      -0.03027703      -0.21436966       0.07890095
H        9.22389579       8.58873469       7.82337435      -0.37036921       0.63515351       0.62979432
H       10.02354957       6.35187005      11.33000930      -0.26060162      -0.22440920      -0.05836090
H        7.45507035      11.09331486       8.20489704      -0.05786639       1.52493054       0.74450144
H       10.98494387       3.71377555       6.62537632       1.35280921      -1.23006950       0.53368418
H        3.93655934      10.62859206       3.35643810      -0.11742162      -0.15200396      -0.31765169
H        7.78040486       7.51204307       3.92993049       0.75114764      -0.02574332      -0.25073774
H        6.25989743       5.71756496       4.18991170      -0.37361290      -0.03358343      -0.29818980
H       11.81858892       9.87274577      11.21610509       0.86470381       0.92463838      -2.39286427
H       11.63486487       5.64220415       2.51084962      -0.51523340      -1.67841028       1.02571770
H        0.61706510       9.47998807       7.02333368      -0.35007244       0.44537922       0.00681330
H       11.36012981       3.80513967       9.87428892      -0.50043460       0.63999789       0.85973744
H        9.00955360      12.30239024       0.14893050       1.23823957      -0.09194025       0.44862905
H        4.44830350       5.64704352       7.05907756       0.72937194       2.19862878       0.05982740
H       11.33906634       8.07095162       1.38519454      -0.58890529      -1.25148250       0.95410087
H        3.40670631       4.00688949       8.56864623      -0.81649614       0.12794397       0.66578753
H        6.45000142       0.42934333       3.04635869      -0.77429350       0.91816200      -0.26978226
H        9.67593692       2.19901964       3.50182503       0.13663131      -0.25803874       0.17571729
H        0.42606979      11.93346459       9.21552070      -0.22077278       0.30324811       0.88731017
H        0.03567062      12.37135180       1.45917830       0.10641056       0.16185124      -0.38171485
H        2.46646899       6.42694021       4.00804770       1.13517738       0.88486631      -0.01463431
H        9.70692418       9.38871393      11.50262322      -1.44783432      -0.16598371       0.23038053
H       10.57982891      10.69589811       3.88570661       0.00030660       0.15402601       0.18694222
H        2.47260742       7.71352706      10.75875132      -0.94169003       0.49619406       0.97390359
H        6.38190602       2.10692136       5.39201590      -0.43757567       0.41940565       0.50518298
H       11.47033155       2.26671063       1.77411493      -0.23732135      -0.04316747      -0.46326324
H        6.70822567       9.70032777       1.70428852       0.31052792      -0.12100847       0.33150509
H        3.96234837       0.26712868       9.41325800       0.11423782      -0.10971750      -0.40979861
H        1.68003375       8.48422396       4.39299196       0.34258379      -0.16596278      -0.36516822
H       11.28967766      11.46740389       7.20167439      -0.26869440      -0.41165074       0.48861182
H        5.52668477       2.68879479       8.52775336      -1.24828626      -1.35282036       1.24072790
H        5.43641695       8.05879367       1.16974195      -0.05115304       0.03815317      -0.36391067
H        5.58478260      10.33884642      10.57501316       0.04085037      -0.20604863       1.22191317
H        9.20986578      10.36674036       5.95657109      -0.12825386       0.01702231      -0.24422838
H        4.16207372       4.73169259      12.15866327       0.33897017      -0.18049792      -0.58050974
H        8.20175759       3.46378345       3.86290969       0.53783746       0.12985660       1.23399134
H        1.97639917      11.10097428       6.38382226      -0.66690959      -0.26685500      -0.60995198
H        1.73952968       4.83577926      10.64580557      -0.24173008      -0.06989076       0.07355970
H       10.60870461       0.58328658       9.54036231       1.05718714      -0.29440707      -0.16771217
H        2.57499151       1.82552574      11.76260955       1.07513139       0.60430239      -0.00772570
H        8.86665011       4.74372275       7.86294414      -0.02544616      -0.22637428      -0.67916550
H        1.96831836       1.75477832       4.84197675      -0.78404829       0.22968046       0.09888170
H        7.65782686       6.02187385       9.88941957      -0.09197208      -0.30541707       0.19186480
H        6.94693770       9.57154350       5.37783287       0.48322776       0.03026466      -0.55786967
H        2.13113381       5.60605731       8.10866793       1.31383006      -0.93497948      -0.05449900
H        2.31041858       0.64931053       7.50209173      -0.13928186       0.27116998       0.31060102
H        4.37574155       0.41368245       0.39692454      -0.22972535      -0.35698752       0.34616412
H        0.07605716       2.06509634       7.47263517      -0.03328557      -0.37830086      -0.25837156
H        9.61487846       6.97367032       5.63866426       0.29373411       0.34501736       0.11501753
H        8.56355780       4.21528982       1.55319736      -0.12382652      -0.48117114      -0.80625131
H        0.32764207       5.41400260       4.31089002      -0.42066607      -0.34628156      -0.37783974
H        2.49174744       6.27218433       1.12906861       0.08702083      -1.15553593      -0.43493696
H        8.02428652       2.59516930      12.39482374       0.01893186       0.08815997      -0.48467019
H        2.74232207       1.54445507       2.67454211      -0.18258282      -0.47220724       0.14774489
H        5.41540902       3.14182267       3.07223104      -0.00798520      -0.44233454       1.22345702
H        1.76249260       4.46282640       0.41582634       1.10786658      -0.57248356       1.35118927
H        2.19885512      10.69363102      10.74625211       0.67051590       0.53208528      -0.52135255
H        1.23361072       2.06162973       0.01826796      -0.66535520       0.59805489       0.81652999
H        9.10509515       4.69728277       9.31576328      -0.63522788      -0.34532012      -0.11691098
H        8.15034592      11.19382067       5.21883297       0.56322335      -0.38922259      -0.41035300
H        5.22818735       3.75082485       0.19409669      -0.65361276       0.74630837      -2.63292449
H        8.99220886       3.84834844       5.19807181       0.46417683       0.65451073       0.21388579
H        3.40271051      11.49476471       5.85428118       0.49752969      -0.04555795      -1.51773626
H        0.66436367       5.59125422      11.53602767      -0.18511361       0.53156383      -0.31348038
H        9.10905967       0.68000781       9.62582769       0.20044139       0.48154834       0.07194998
H       11.06804720       1.45815443       7.21093741       0.19127994      -0.10799462       0.01023585
H       10.92688619       7.76653924       5.75230397      -0.12565162      -0.12983245       0.26646058
H        2.49952961       3.25386416       5.29015067      -0.20563654      -1.75411120      -0.45625550
H        7.41765654       5.31686622      11.29141200       0.08009578       1.10251059      -0.74126672
H        5.57826479       9.40025171       4.51119721       1.30632842       0.04781107       2.06145158
H        1.07433409       6.49670751       7.98968947      -1.39900490       1.72419247       0.11567435
H        2.27824951       1.78388767       8.60837842       0.26392579       0.11252677      -0.09345279
H        4.88591379       1.62610318       1.18760377       0.15515922       0.36683438       1.21175835
H        1.70929807       4.20510822       1.98451611      -0.55946572      -0.01283233       0.56379974
H        2.34647248      12.11695990      11.14990885      -0.24778774       0.83153013       0.54378799
H        8.74863454       5.25801514       2.65098214      -0.63729565      -0.61796400       0.01381476
H        0.83567592       5.54587461       5.76346183       1.09331299       0.17537423      -1.12635291
H        2.55077717       7.41524635       2.01172760      -0.20913490       0.24716718       0.57002851
H        8.98403170       3.40949798      11.45247341      -0.64319563       0.06868138       1.30240340
H        2.11161269       0.08919563       2.49085653       0.44319751       0.65878726      -0.18768129
H        4.40178006       3.47282932       1.94367855       0.73706961       0.04599991       0.47905676
H        5.51967990       7.80801059       2.65225995       0.36377625       0.32873278      -0.25488178
H        4.39599114      10.64388742      11.48717310       1.03061044      -0.64875341       0.37405460
H       11.39317368       2.43562090       0.21971302      -0.37813599       0.08428711      -0.06548709
H        7.57679336      10.53687691       0.77119215       0.31432940      -0.30319677       0.12293320
H        4.60027355       0.13639215       7.96812391      -0.14071774       0.93966024       1.11654091
H        0.36846305       9.30274303       4.64084208      -0.69289367       0.92717511      -0.86756039
H       10.20617661      11.42394625       8.35638511       0.13349441      -0.38482622      -0.30443435
H        6.73157508       3.54378186       8.39108693       0.77620067       0.49115262       0.13546013
O        3.57474162       7.91038486       8.09872024       0.44263658       0.68729377       0.06591323
O        4.75772860       7.39124623      11.65245530      -1.45493049       1.34439444       0.51379279
O       12.13696395       7.95812468       8.90237675      -0.33807010      -0.39826032       0.05919987
O        6.72696278       6.17525569       6.12762181      -0.37022953       1.96223409      -0.25277450
O        3.26864396      10.31977835       0.87390261       0.98741815       0.90673950      -0.33506910
O        7.07169134       1.18288498      11.26642691       0.22723555       0.76028796       0.54181432
O        0.29852093       0.90717531       4.69885679       0.48727008      -0.67845458      -0.42633657
O        5.99294311      12.18823311       6.17447361       0.08850533      -1.00852802       0.55714049
O        8.67102203       9.30016818       8.24842779       0.22577749      -0.50552172      -0.08597694
O       10.91920056       6.61404566      11.07580095      -0.72425434      -1.41793987      -1.90818407
O        7.56693496      11.91159239       8.77706037       0.15788143      -0.63586097       0.20550907
O       10.47566499       4.49521875       6.48080434      -1.98530503       1.71397460      -0.35621737
O        4.39604077      11.20730751       3.97728783      -0.13081156      -0.58001623       0.44485981
O        8.72148703       7.67666972       3.66948214      -1.00546001       2.30024242      -0.86277525
O        5.75670596       5.90605833       3.36363724       0.54882878      -0.35652525       0.05913073
O       11.63056779       9.58007442      12.07362153      -1.11713846      -0.86471353       2.49689608
O       11.57762047       4.80632138       3.12218228      -0.74692299       0.93069963      -1.60833688
O        0.08160080      10.16487147       7.49053624       0.82330219      -0.04308006      -0.55077015
O       10.49081260       3.74963565      10.35242409       0.51258577      -1.87179101      -1.91606681
O       10.01138070      12.34459996       0.22104809      -1.74150878      -0.17579051      -0.18180784
O        4.14445848       4.77002022       7.02061973      -0.07211964      -3.06422061       0.04301093
O       10.97739094       7.25500402       1.86181039       0.64153871       1.25701798      -0.91292793
O        2.89287015       3.79684372       9.42226402      -0.31657488       0.36378831      -2.12487237
O        7.01453190      12.20858179       3.44025408       1.15645256      -0.75512612      -0.44411548
O       10.23509862       1.66392448       2.88295988      -1.09100826      -0.87298150      -0.16590420
O       12.34207949      12.02622218      10.06337997       0.03670691      -0.17453565      -0.70442503
O        0.52888252      11.55959258       1.66929625       0.00898039       0.16435227       0.47116969
O        3.13310235       7.15493355       3.71311832      -0.01942989      -0.80974519       0.09975642
O        8.69659258       9.47354371      11.49172590       0.75308791      -1.03950880      -0.75074792
O       11.53931110      10.84942419       3.97479123      -0.18808077      -0.88993582      -0.40796434
O        1.61134004       8.09060978      11.10203924       0.88503026       0.04386763       0.57970504
O        5.51969932       2.24583767       4.96488312       1.22091609      -0.05986456      -2.02345567
O        5.56413605       8.54950446       2.00345050      -0.64161489      -0.84871508       0.34721962
O        5.29691589      10.17346988      11.52087629      -0.92454734       0.95769623      -1.90429605
O       12.00915244       2.38304156       0.95782753       0.60403373       0.00347293       0.27798489
O        7.54525056      10.23556228       1.69986522      -0.17877873       0.32923674      -0.40788990
O        4.57098305       0.71934348       8.79340185       0.27960836      -0.89683627      -0.85443836
O        1.02178775       8.74731825       5.03989590       0.22098357      -0.50848587       1.45217129
O       10.41484616      11.81126972       7.49423257      -0.14328338       0.84296238      -0.54192031
O        6.04880115       3.10805100       7.87526241       0.78442919       0.48095008      -1.32290251
O        1.71133596       1.45691038      11.88807105      -0.33363478      -1.35246555      -0.91382068
O        8.33540179       4.73283319       8.67758631       0.97530812       0.31609465       0.44996203
O        8.70322491      10.37227641       5.11273730      -0.39116151       0.80324106       0.64853056
O        4.82719069       4.13663032      11.73759914       0.48856137      -0.37755657       2.80703705
O        8.53387307       3.13264422       4.75751793      -0.82574409      -1.03937831      -1.21348936
O        2.86474730      11.34480267       6.61776595       0.34667425       0.24668656       2.13030130
O        1.07353738       4.73771079      11.36380810       0.27658395      -0.47917773       0.11959922
O        9.93066154       1.11697082       9.96394924      -1.27001837      -0.21415166      -0.03025243
O       11.73227277       2.08466170       6.85324216      -0.09709596       0.18666509       0.52318399
O       10.24315236       7.33271932       6.30118213      -0.11427758      -0.01125832      -0.17697190
O        2.73410498       2.29546128       5.07141881       0.96005915       1.89619902       0.38655470
O        7.51863439       6.21149906      10.83953636      -0.07279649      -0.53451847       0.82951097
O        6.04714352       9.20816911       5.40653769      -1.51270780      -0.47858129      -1.38636154
O        1.32785364       5.67603800       7.60426170      -0.37306827      -0.75497373      -0.15024374
O        1.72516953       1.17424609       8.09731186      -0.54610097      -0.15866353      -0.15849013
O        4.77903862       1.28294918       0.31075383      -0.03243053      -0.37485377      -1.70345291
O        2.35436132       4.31031730       1.28558907      -0.30583465       0.19538561      -1.90535016
O        2.73737625      11.50273346      10.52681269      -0.17274261      -1.53360430       0.14675320
O        8.26001911       4.41665861       2.45142687       0.65469219       1.46885497       0.35539902
O        1.14779379       5.53195157       4.80453861      -0.06910046      -0.11441862       1.42483192
O        2.07991589       7.13180573       1.20124020      -0.17891218       1.23297608       0.06333999
O        8.39412772       3.48905825      12.25726512       0.60428039       0.14128453      -0.63579436
O        2.96093493       0.60238122       2.53722844      -0.29557940      -0.00528865      -0.04399131
O        5.36888413       3.30173457       2.12629820      -1.22383795       0.29822433      -1.12267974
192
Lattice="12.429 0.0 0.0 0.0 12.429 0.0 0.0 0.0 12.429" Properties=species:S:1:pos:R:3:forces:R:3 energy=-933.0997043228779 pbc="T T T"
H        6.72333508       5.11508391       5.02256809      -0.26619444      -0.08139874      -0.37003065
H        3.48390049       8.60436777       7.20059609       1.47855005      -0.37944981      -0.18866917
H       12.11245519      11.47635613       4.18718131      -0.05822816      -0.15313875       0.69850746
H        5.19447312       7.64947083       5.86763270      -0.24581159       0.76934610       0.29258036
H        1.24459855      12.13997898       1.70363382      -0.15303332       0.10070061      -0.53142551
H       11.38083884       4.74750211       9.67926948      -1.81263086       0.20141330      -0.75619185
H        4.24658473       5.38628217       1.63829761       0.18634260       0.33410687       2.66349247
H        7.70776408      10.06913770       7.09875657       0.08868828      -0.27227397      -0.76618493
H        9.73689803       9.76946832       4.51485510      -0.39585506       0.53209331       0.01992281
H       12.06829448       6.85049900       8.74727257      -0.62171934       0.12689256      -0.22994017
H        9.08260752       0.61884117       1.52246546      -1.55369771       0.81262606       0.76356096
H       12.41481390       9.69301099       8.02581479       0.23145316      -2.23604814      -1.75029383
H       11.89267685      10.08887476       6.26914855      -0.02818549       0.33798473      -0.92982367
H        0.04965324       5.67901483       2.79081938       1.09627168       0.26416360      -0.47526234
H        9.75490993      11.20208986       2.44157765      -0.71821358      -0.68864593       0.30343887
H        8.32459306       8.59885613       1.39125874      -1.14372267       0.03597582      -1.41415565
H       10.49853575       7.14354808      11.44408788       0.76616313      -0.22705233      -0.13078552
H        5.94634666       0.56093502       7.36598438       1.18072448      -0.14859737       0.27127066
H        9.89474472       6.69308962       6.70457146      -0.45492261       0.46357196      -0.65455489
H        1.19332812       2.60620790      11.63997211      -0.37681173       0.56883815      -0.71864065
H        7.41401529       5.46837146       9.23967516      -0.76860518      -0.43872800      -1.33454411
H        7.58078028       7.55612243       3.15196257       0.90691833       0.43577795      -0.06808571
H        5.36869087       3.44716981       7.23757464       0.02388983       0.81073782       1.10940524
H        8.29763124       2.37204178      10.23523894       0.43126697      -0.20114842       0.25225117
H        1.89751165       7.59450915       4.79307233      -0.92326748      -1.32928095       0.85828571
H       11.68094300       2.92744350       0.61759780       0.44322777      -0.15909869      -0.89848821
H        6.77235420      10.81481299       1.26576160      -0.10646454      -0.46111828      -0.09945236
H        5.47526981       8.81314273       3.88315897       0.41823141       0.74936436       0.25857481
H        8.71915733       8.96368854       9.08709515       0.03231532       0.51444321       0.14055680
H        8.64178737       2.72281665       4.31543481       2.10871628      -1.09178709       1.76514425
H        0.22108820       0.67633557       9.00607531      -0.37030437      -0.38017719      -0.10825972
H        1.68186623       6.38034422       6.95185956       0.80876661      -0.15267212       0.01397992
H        7.64153870       5.68751569       6.11556051      -0.72705374       0.55713961      -0.24233762
H        2.78655306       8.26360260       8.64595466       0.77219029      -0.47443599      -0.70683839
H        0.50025060       0.32582052       3.71592335      -0.30328376       0.12793392       0.08654326
H        6.06127504       8.82793731       6.21367688      -0.04831934       0.72709153       0.13660350
H        2.68105804       0.05194394       2.01943263      -0.00234641      -0.33233638      -0.36105935
H       10.47941011       3.60606970       9.15158215      -0.39989919       0.26831016      -0.23862564
H        4.14759574       5.30107712       3.33827888       0.12789523      -1.11112889      -0.07355778
H        7.30688990      11.41961581       6.46283642      -0.41175829      -0.09622446      -0.10718809
H        8.29470753      10.41563880       4.61516428       0.80522424      -0.69950810      -0.20115699
H        0.95536559       6.52191649       9.25290347       1.23739342       0.04054817       0.61924029
H        7.96687513       1.67879571       0.95182723      -0.20708553       0.64271394      -0.75052911
H        0.88675024       8.53263267       7.44707611       1.68367229      -0.21582070      -0.07988541
H       10.79388396      11.14700439       6.17913585      -0.03698637       0.34021085      -0.16420118
H       11.28057656       4.87097861       3.02118516      -0.67056985      -0.57702913      -0.22193910
H       10.76761079      12.27854579       2.56619239       0.38300674      -0.00937285      -0.37191172
H        7.18174595       8.22343079       0.34345856      -0.32504430      -0.14633355       0.12144929
H        9.17494569       7.63812868      11.86041694      -0.01418557      -1.33721849      -0.09139841
H        6.57746543       0.88273445       6.04537782       0.34039183       0.35697231      -0.82503130
H        9.60087963       5.62720902       7.65517701      -0.14368468      -0.80725457       0.76229889
H       12.35731077       3.44028661      10.97171759       1.47928338      -1.23541011       1.36989913
H        8.66291215       5.70983473      10.02920739      -0.13941836       0.20814642       0.40299180
H        9.11711875       8.03474230       3.31353039      -0.85689868      -0.07722225       0.07737813
H        5.91054303       4.77096742       7.02005195       0.78419676       1.61152251      -1.14243578
H        7.08481827       3.30894645       9.89904998       0.53871672      -2.32571339       0.69364177
H        1.53272390       8.21686479       3.38832054      -0.50351351      -0.34098275      -0.13817928
H       10.27106851       2.82897143       1.27311902      -0.14479344       0.02573779      -0.01122242
H        7.22754208      12.28688514       1.58605753      -1.59638444      -0.58300673      -0.00273968
H        4.91671927       8.01377071       2.87721894      -1.19265430      -1.37156756      -0.99260752
H        8.49796458       7.80828617       8.11383622       0.13766790      -1.11618291      -0.46021311
H       10.26881108       2.38334228       4.76901402      -2.38107397       0.15930446       0.45745770
H       11.39772851      12.17171782       9.03495823      -0.80232314       0.01347274      -0.34057014
H        0.37110906       6.48196747       6.39391406      -0.58731452      -0.02264762      -0.81661679
H        4.45241902       0.49991022       9.58113205      -0.64380655      -0.47957663      -0.12487353
H        9.86407336       0.53458946      11.07947441       0.01834739       0.19398426      -0.20684715
H        3.76404639       1.59666965       2.71288842       0.36237229      -0.90812562       1.05337946
H        3.48018547       9.70022824       5.18137520      -0.31802470      -0.20712234      -0.18965430
H        0.13773698       2.59190423       5.00306636      -0.13738282       0.63845473       0.48829482
H        9.21746672       2.59080217       6.73885391       0.13981337       0.57509970      -3.87405941
H        8.84978128       4.85816429       0.31658832       0.10438934      -0.81701230      -0.59166018
H        3.46502405       0.36947519      11.82366285       0.40266244      -0.22955385       0.22066083
H        1.57104085       2.40613987       8.25183019      -1.46530082       0.08445531      -0.09838803
H        5.30827949       9.65333672      11.07833022       0.79954043      -1.30295495      -0.73307159
H       11.78183809       8.79884574       1.13401916      -0.80413578      -0.81698911      -1.65715345
H        4.85399155      11.54353903       2.85213349       0.01128926      -0.33285853       0.24059481
H        3.91987890       6.18280783       9.70699615       0.88989377       0.88715667       1.78063037
H        8.63738173       9.74749536      11.34009072      -1.21712622      -0.59377036       1.71602166
H        2.11280421       4.13568755       1.50997889       0.00254775       0.59849582       0.30445923
H       11.53795742       8.03614628       5.37271895       1.11531766       1.89645840      -0.15554579
H        4.98468548       2.58621800       0.16967523       0.90895100       0.27262475      -0.22648682
H        6.54870904       8.76044847       9.29128145       0.33139266      -0.97307781       1.25903844
H        6.57434155      11.57965295      10.49013760       0.04162667      -0.68322748      -0.15710907
H        3.55922253       3.21123818      10.89227107      -1.03060407      -0.07987807      -0.93707497
H       11.09795993       9.46452008      11.05301994       1.18813220      -0.44299875       1.06083348
H        3.35265297       3.71245761       5.62919234       0.01550643      -0.05733677       0.23198855
H        8.78710312      11.72352791       7.94246558       0.53919698       0.05134173       0.44905737
H        6.32966828       2.95156837       3.04072181       0.35798990       0.72983206       0.79728338
H       11.26682829       0.09447102       0.14283122       0.52623039      -0.24788222      -0.26114110
H        3.39995912       9.69852638       0.01137377       0.23514034       0.62548647       0.23609397
H        3.92257431       1.73536907       7.32373489      -0.82783847       0.70248061       0.26306535
H        0.54690086       5.58083517       0.42909271       0.92415405      -0.24013324       0.09161239
H        0.06433171       2.28420957       2.69452197       0.22934534       0.02378758       0.54654514
H        5.67871176       0.85366416       3.78350711       0.41936739       0.11334838       1.16291740
H        1.50576106      11.18104248       9.71144551      -1.03269060       0.32228699      -0.14299513
H        1.43493076       7.01919230      11.14901337       0.85348531      -0.21283806      -0.62679432
H        2.55186116       5.64465763       1.76286143      -0.21104911      -0.42712396       0.57703366
H       11.05886958       6.81097134       4.54874271       0.35058393       0.07605610       0.57326458
H        0.23965553       2.47574155       7.37929789       0.23881777      -0.32086241       0.41598691
H        4.14858943      10.60705584      10.45087461       1.03578286      -0.75747077       1.44386912
H       12.38734544       9.88329139       1.81771811       0.52109114       3.12515357       0.04702816
H        3.88187870      11.63891073       4.24153785       0.69000779       0.04821451      -1.55616847
H        4.46502119       5.28604289       8.47762513       0.47855152      -0.14925921       0.34141837
H        8.64320773      11.13784864      10.52761926       0.49602375      -2.21756955       0.28207219
H        9.24883448       0.74189938       7.69734657       1.22502199      -1.33436916       1.11900833
H        6.39823633       4.35601058       2.51074780       0.39000987       0.33237651      -0.16012822
H        6.16336090       2.56356472      11.62170968       0.28955846       0.08906410      -0.09188339
H        7.03329559       7.55377528      10.28267950      -0.42883026       0.51848409      -0.63674343
H        6.96848976       0.52976886      10.55138747       0.03393449       1.96768598       0.21155373
H        2.73691399       4.37880591      10.34968995      -0.15272609      -1.25899886      -0.57837284
H        0.15229186       9.61560262      11.63008121      -0.84946651      -0.45649504      -0.07577249
H        2.62805457       5.03169766       5.21716061       0.98612946      -0.74694288      -0.06469153
H        2.42429873      10.16536394       8.88728198      -0.10765698       1.38261952       1.09825405
H        2.52381007       7.99320268      11.25248016       0.42867530       0.24932336       0.19178164
H        0.00577794      12.29306397      11.47643146      -0.90378442      -0.13002047       1.27176772
H        2.23521154       9.26170705       1.08827296       0.58324206       0.23026489      -0.64595034
H        3.71628924       2.94667829       8.26923596      -0.73096967      -0.24961401      -1.10504715
H       11.57107296       5.65113403       0.02650099      -1.21924300      -0.01960293       0.04775319
H        1.62540968       2.19882981       2.77200015      -1.22933801       0.04442902       1.37673000
H        7.18336378       0.84685186       3.91123722       0.43002741       0.15135940       0.00138778
H        8.71964733       5.82888910       1.32464528       0.16661496      -1.58226203       1.03089490
H        5.05236063       0.32446592      12.14312235      -1.91280098       0.55042877      -0.98322214
H        3.58128113      12.06007998       8.51366043      -0.53532929      -0.06240143       0.80076305
H       10.97613765       1.61404762      10.95690971      -0.84852173      -0.17991060       0.36387769
H        3.68061355       2.06547464       1.31790927      -0.33371295       0.53326627       1.19239715
H        2.02809577      10.31815566       4.99549702       0.95405644      -0.31709708      -0.08414015
H       12.16194656       3.79443609       6.01905990      -0.15514350      -1.22676136      -0.89263987
H        8.20056685       2.32446576       7.83113079       0.59186055       0.11180445      -0.24853079
O        6.71336459       5.77551213       5.73950849       0.96317797      -0.31649092       0.30966325
O        2.73515944       8.71200811       7.77287783      -2.07861112       0.48442247       1.56007137
O       12.34801879      12.02543496       3.42402786       0.39319182       0.04155588      -0.75839152
O        5.11659043       8.61953702       6.09365086       0.18864281      -1.73381422      -0.57744214
O        2.06134287       0.01196481       1.25691434       0.49380513       0.04120003       0.75579812
O       10.41216857       4.54791527       9.41572862       1.94796809      -0.33427008       0.62039243
O        3.98559218       5.81277537       2.53305240       0.89983261       1.01156414      -2.51122577
O        7.39125781      10.45887768       6.23917477       0.18713251       0.23460897       0.81155250
O        8.96293321      10.03624811       3.97120674       0.02650853       0.26611957       0.19461128
O        0.24547434       6.09971494       8.77562606      -0.47006648      -0.03672884      -0.39346976
O        8.19326264       1.17612033       1.72860256       1.74682133      -1.20430417       0.18903305
O        0.02992993       8.91863130       7.31206495      -1.93499045       2.69673881       2.31478935
O       11.47570790      10.73147147       5.61719983      -0.14398829      -0.63701654       0.93613929
O       11.77562880       5.58527916       3.42703173      -0.49485523       0.09003735       0.49451077
O       10.13087700      11.90941750       1.90792664       0.27490353       0.55531219      -0.02576729
O        7.89093237       8.85939060       0.47888568       1.28113941       0.18253241       1.13521577
O        9.62147579       6.77039870      11.59425502      -0.38131640       1.79927925       0.44782939
O        6.85549434       0.70423122       6.96575269      -1.59184615      -0.21257268       0.71829259
O        9.11228906       6.28710465       7.15028034       0.56352885      -0.06601853      -0.07568392
O        0.22526809       2.74428308      11.65276648      -1.01157657       0.65736788      -1.01855795
O        7.69229862       5.85177312      10.05626603       0.56169959       0.01069352       0.72252190
O        8.48778095       7.53341953       2.75321231      -0.14323923      -0.41349292      -0.09862896
O        5.61643974       4.26142586       7.77005167      -0.07022312      -2.22157878       0.06910650
O        7.32914512       2.34022164      10.18971965      -0.84613797       3.00541905      -1.05719086
O        2.12576838       8.23934646       4.14363279       1.04225668       1.39017288      -0.98100302
O       11.20776268       2.97636294       1.45377244      -0.19293969       0.13421243       1.48419712
O        6.38624874      11.66780290       1.50853227       1.16814012       0.98737432      -0.07654906
O        5.51073232       8.74890496       2.91225013       0.72608615       0.47582518       0.76568553
O        8.46683823       8.76163948       8.16629170      -0.09198461       1.10457468       0.30031688
O        9.27443425       2.28730788       5.03968945       0.05573074       1.09547800      -2.67123115
O       12.31524282      12.21381661       9.31932781       1.04134115       0.42751028       0.32866231
O        1.28352592       6.41170096       6.06636737       0.09810817      -0.23970247       0.76940865
O        8.77491683       4.81266287       1.28006934      -0.25492190       2.40662234      -0.41135172
O        4.31160961       0.81070215      11.60530279       1.30336491      -0.52593584       1.12418721
O        4.40372614       0.10084074       8.68826498       1.46045669       0.77143997      -0.86175900
O       10.03336544       1.47902523      11.24790831       0.56806731       0.06462832      -0.29817462
O        3.61767655       2.42350491       2.25691951      -0.15050650       0.19333636      -2.21884832
O        2.97561358      10.52571433       5.15662022      -0.31255382       1.19450434       0.49606595
O       11.98321497       2.83679803       5.77917950       0.49377172       0.89314586       0.05068614
O        9.16355430       2.43808385       7.64066766      -1.00363544      -0.44177150       4.39369188
O        1.78824991       5.05653785       1.55435311      -0.90888309      -0.32867195      -0.60019348
O       11.04847495       7.25001301       5.44439263      -1.48973291      -1.97085200      -0.36034111
O        0.56416805       2.37400466       8.31556193       1.13633967      -0.10782422      -0.04512610
O        4.70536357      10.35816605      11.26951265      -1.67614347       2.03887038      -0.67022790
O       12.22034624       8.98722817       1.94523767       0.42567744      -2.20057749       1.86529635
O        4.35439596      12.12552557       3.45719658      -0.98824684       0.47728143       0.77217715
O        3.73695557       5.78274875       8.88951056      -1.67083711      -0.51455709      -2.13667801
O        9.06687782      10.18650760      10.63365312       1.04006567       2.47643630      -2.02280864
O        9.58117350      12.26805955       8.11941417      -1.00814731       0.94157593      -1.33140653
O        6.59811340       3.86660320       3.32067574      -0.45454419      -0.74460740      -0.37756332
O        5.83824136       3.04089654      12.40513414      -0.96450926      -0.00754231       0.54222339
O        6.47260196       8.37673439      10.21391714      -0.20407266       0.29597944      -0.57459152
O        7.30556462      12.15453950      10.19951666      -0.30065915      -1.73715925      -0.05633795
O        2.75646005       3.37036638      10.30240876       1.50342719       1.10660460       1.47762690
O       11.83112993       8.96972758      11.56214905      -0.63466660       1.08444882      -1.16355568
O        3.47511341       4.50912350       5.09133427      -1.00617167       1.04610926      -0.18614004
O        2.41358271      10.89915447       9.60943608       0.97132867      -1.74054454      -1.34898690
O        2.30427009       7.22516303      10.68282256      -1.55585829       0.02992694       0.69943208
O       12.09543123      12.03647161      12.38873802       0.53260623       0.02411945      -1.11183232
O        2.78350742       9.01410098       0.31283967      -0.84356702      -0.85906756       0.38834050
O        3.42510027       2.60405760       7.36668223       1.07393596      -0.79607095       1.02223342
O        0.00396659       5.80424879      12.08133600       0.25874437       0.13305146      -0.40135364
O        0.79398828       2.16577366       3.37090906       1.03372829       0.13126497      -1.85221542
O        6.42137451       1.26457142       4.34101881      -0.78005780      -0.53379147      -1.04955912
192
Lattice="12.429 0.0 0.0 0.0 12.429 0.0 0.0 0.0 12.429" Properties=species:S:1:pos:R:3:forces:R:3 energy=-934.3803417887962 pbc="T T T"
H        5.74653704       8.36034938       5.02791292       1.06694478       1.11228999       1.46632074
H        3.32205874       7.78680834       7.29511123      -0.41226601      -0.53562036      -1.00812519
H        9.53192714       8.86751104       6.42735490      -0.00816622      -0.31772465       0.05133634
H        3.33509611       6.16942207       5.05893459      -0.21509677      -0.51993289       0.49627503
H        4.00392614       9.02885523       0.88715327       0.12446083       0.53420412       0.00817214
H        9.83898021       2.86540111       1.22505602      -0.09996401       0.00558859      -0.08332355
H        2.58520637       3.43656336       2.39081225       0.26881608      -0.00580646       0.35148499
H        6.54821164      11.32498834       6.91937119       0.74157275       0.03482756      -0.24599098
H        7.69775510       9.79007699       5.68147662       0.99717952       0.74337170       1.11447822
H       11.01778125       5.98852215       8.73832588      -0.16547577       0.29673228       0.47689481
H        7.31261575      11.60192273      11.37388420      -0.44069419      -0.06941806       0.35050924
H       12.40794936       5.24987725       6.69737485       0.23194660       0.57039268       0.22592043
H        8.09407545      11.37906550       2.74559475       0.55442917       0.13881233      -0.85912602
H       10.82163305       2.70479911       3.91980322      -0.54526359       0.27568825      -0.19712422
H        4.99563479       6.52654633       4.22689183       0.03644871      -0.21018012       0.13403543
H        8.57577404       8.18644932      10.46731774       0.22583662       0.25969051      -0.26697224
H       10.83845695       5.99539341      11.63436413       0.16199217       0.01051080      -0.33274307
H        2.41772480       8.19961004       4.95120133      -0.56672927       0.18280094      -0.23013064
H       10.03483321       2.62361437      10.95213122       0.24531136      -0.06643044       1.02366963
H       10.83682647      11.55440475       1.99852855       0.34227968      -0.59068254      -0.30047337
H        7.04575318       4.89307592       1.00300784      -0.18441492       0.12572194       0.77083299
H        6.58030648       5.46330660      11.04352310       1.06963413       0.76844670       0.45237631
H        5.92203777       2.56780522       9.40443206      -0.27854615       0.31266111      -0.36542911
H        7.40526643       1.55581837       0.17381673      -0.02576951      -0.10188430      -0.51949477
H        1.04199071       0.93853442       8.10380888      -1.14915656      -0.61327190       0.57889100
H       11.61185642       8.86508115       1.47173548       0.31629915      -0.46528609      -0.23385445
H        0.59850365      10.49800338       1.54625488       0.98816969      -0.25263535      -1.04681859
H        3.96941888       8.19056611       3.07867530       1.75100378      -0.67573722       0.40341325
H        6.93875349       8.78665905       7.95409975       0.65219316       2.87218760      -2.30445920
H       11.36399347       8.05173342       4.93454416      -1.73892116      -0.40962210       1.34559177
H        1.36468781       9.25772552       8.16422381       0.54948254      -1.41726509       0.40567168
H        8.26230514       2.35230235       3.47118003      -0.03412769       0.34577769       0.06499791
H        5.28554593       9.76965746       5.50029123       1.24614061      -0.82973995       0.49931172
H        3.35737175       7.88198952       8.79483437      -0.32935625      -0.42955985       1.31956814
H       10.14144057       7.59848025       7.19530585      -0.19623403       0.27843948       0.02222219
H        3.84767189       5.01311706       5.97070388       0.03010483       0.46987665      -0.14531101
H        5.00635954       9.24147060      12.00366257      -0.65703186       0.35090112       0.77594971
H       11.06663641       3.62104110       0.65173743      -0.68353306      -0.49660530      -0.23310202
H        1.49702536       3.01789123       1.39302468      -0.21241246       0.64762081       0.41145719
H        5.52945527      12.13996230       7.61855100      -0.12694740       0.50936728       0.28576802
H        8.66985697      11.04147596       5.65160476       0.25166263      -0.39710080       0.31219637
H       10.87840768       7.34160127       9.45140748       0.24083605       0.35987450       0.23235206
H        8.06991598       0.31959934      10.83087300       0.56328951       0.48786979      -0.61697895
H       11.78845490       4.32816839       7.60591620       0.16718418      -0.01732560       0.36624927
H        6.66625883      10.77986366       2.72078681      -0.32869881       0.11734692      -0.39837848
H       12.17152220       1.94295445       4.13614033      -0.01100522       0.06140736       0.58281108
H        6.27828753       6.52661211       3.43543026      -1.08238030       1.19649123      -0.04091258
H        8.05099150       8.92886312      11.62921359      -0.11852783       0.26769352       0.43661326
H        9.55911898       5.69424953      12.30448851      -1.34949391      -0.35141285      -0.08794650
H        1.34262820       7.28382713       5.66821470      -0.63685602      -0.06973734      -0.53194917
H        9.45241078       3.26727517       9.70088731       0.33239118      -0.84675369       0.09134956
H       11.98800187      11.99585868       2.87685421       0.90264062       0.91760788       0.85879527
H        6.30793927       4.29883777       2.22916302      -1.63615599      -1.26565606       0.25299557
H        7.56105144       6.54813410      11.70936803      -0.64419074      -0.92485815      -0.36621732
H        5.61521723       1.35596716      10.26019671       0.57838746       0.85378515       0.12442436
H        7.54594976       3.09743849      12.27514388       0.26883945      -0.78239361       0.12507998
H        1.89268284       1.86936768       7.31951237       0.54944124      -0.50348207       0.34627358
H       10.74264576       7.67936199       0.82707990       0.32679122      -1.18692647      -0.19162059
H        1.78716854       9.59655305       1.75848574       1.04546808      -0.59861036       0.82219669
H        2.63671151       7.91462615       2.47227932      -0.79543333      -0.81716171      -0.09989209
H        6.12302668       7.57392188       7.98560159       0.36393895       0.30087540       0.36658411
H       11.30947455       8.92597029       3.66037668      -1.07627716       0.56085385      -0.37597820
H        0.10134318      10.09543770       8.74403423       1.76257142      -0.53709452      -0.48562130
H        8.25767491       3.81384765       2.97242561      -0.63620135       0.86227981      -0.64581106
H        1.34379849      11.30163077      11.91472309      -0.15754954      -0.20003342       0.53517697
H        9.67342373      10.24041971       0.89940049      -0.33068082       0.86270259      -0.38995985
H        3.79227971       2.37582272      11.32399084      -0.69547797      -1.97735706      -1.93342793
H       12.42069407       4.87305146       4.20698062       0.60690879      -0.74277085      -0.29051449
H        0.31087357       9.80885365       5.11552891       0.54757460       0.35142242       0.17656307
H        7.71248910       0.95951560       7.13765444       1.03995243       1.38622140       0.79101858
H        6.02564537       8.17857776       0.73171776       0.11885890      -0.23564795      -0.34360462
H        4.01256720      12.25856148       1.39352320       0.58779328      -0.90984212      -0.80134644
H       10.10431572       2.64235128       7.43304214       1.60128547       1.46031433      -1.63210270
H        4.05285983       6.42144691      10.67351489       0.83683577      -0.92222981       0.21015568
H        8.94522996       6.51396390       3.51529791       0.23429336       0.29446149      -0.03851759
H        3.63044816      10.56863024       8.49762219      -0.01439558       2.69336302      -0.23244988
H        2.94876559       5.84580134       8.72307672      -0.02637382      -0.57110129      -0.89462266
H        9.07853080       0.05604568       8.39664390      -0.38957329       1.02710091      -1.24748556
H        4.39366069       3.14833847       1.29085667       1.06649758       0.01060598      -0.41198514
H        8.15064347       6.35931080       6.13933526      -1.79025798      -1.09345570      -0.05485515
H        5.48913398       2.59334013       3.54497616       0.81616938      -1.36963924       1.36641582
H        8.09500056       5.42049149       8.87971914      -0.14275447      -0.99728169       0.01655102
H       10.84828520      11.47289876       5.03956028      -0.48749503       0.20098437      -0.27235129
H        3.94652202       2.48420342       8.67618360      -0.77789728      -0.74517848       0.82686958
H        1.38191198       2.84270004       9.63952547      -0.29477606       0.38752610       0.64460513
H        0.98830923      12.19045707       4.62909738       0.16745457       0.76498704      -0.39246528
H       11.18995464      12.26034338       8.89168402      -0.84419603      -0.78658401      -0.02763825
H        3.84249076       2.37512943       5.82847598      -1.80095888      -0.02297488      -0.73039114
H        8.31291707       9.40262368       2.97000603       0.59392677      -1.05483331       0.05561471
H        0.85327609       6.85196777       3.29047357       0.64172802       0.19741139      -1.58403255
H       10.69282146       9.59527779      10.39735029      -1.83030845      -0.12204224       1.15514973
H       12.26921412       1.66603103       0.26438664       0.28950926       0.04981643       0.43053170
H        4.45730444      11.94166954       5.44157586      -0.12052940       0.33723662       0.60125862
H        6.90581469       0.39212683       4.02260885      -0.58541757       0.91382653       0.26015056
H        3.16580100       8.61733012      11.14755880       1.88831182       2.65338122       2.29184310
H        5.11295071      10.95624934      10.45603894      -0.18847742       0.27353430       0.03260120
H        5.71996453       3.01127965       0.31386934      -0.98614245      -0.20845441       0.80645652
H        7.03846374       5.18831795       6.50802813       0.76757310       0.41298784       0.07216157
H       11.01100329       2.82031785       6.08132989      -0.12573902       0.20830164       0.48746523
H        3.99316017       5.10751132      11.49466821       1.02040875       0.18834706      -0.86642128
H        9.17367506       5.27247875       4.38536340       0.38135357       0.48368637      -0.91997992
H        3.15087098      12.16371573       8.48478449      -1.69312073       0.60599484       0.05561399
H        1.82982673       5.56513004       7.75241360      -2.36971168      -0.30470191      -0.07974322
H        8.90658378      10.95017474       8.62169637       0.10008282       0.93344905       0.13060526
H       11.04986823       1.32755710       9.27169549       0.69591939      -0.89346632      -0.01552613
H        2.46482540       3.10217634       5.64396526       0.36115246      -0.32092905      -0.32730856
H        4.41497747       3.72300143       3.69947899      -0.95620851       1.07138770       1.96802609
H        7.48831168       4.12386996       9.52417808       0.64277769       0.80894662      -1.52370458
H       10.40826770       0.47393201       4.93980926       0.18486210       1.25093349       0.23397137
H        3.72849726       3.92926926       8.15164893       0.32805394      -0.68404740       0.02447149
H        0.13349384       3.69690473       9.95263794      -0.33824904       0.06646840      -0.19543575
H        1.90277484       0.95067219       4.06494259      -0.35002077      -0.20564864       0.22991438
H        2.26042313       7.44110110      11.38631519      -0.76764555      -0.60774296       1.45686807
H        6.09059915       9.84545833      10.11822800       0.33332675      -0.44163638      -0.39648310
H        9.55570487       8.70012708       2.18590831      -1.30108727      -0.51138688       1.15311827
H        1.46663851       5.99154399       2.15227224       0.14550775      -0.93285306      -0.26789889
H       12.04949626       9.45400359      11.34564711      -1.32063094       0.26363471      -1.18560740
H        0.95508707       2.08832128      11.77984417       0.20129478       0.08462377       0.34925777
H        3.30607653      10.92426804       5.06579123       0.62165635       0.71108233      -0.12288339
H        6.45551628       0.90311233       5.38971951       0.07101258       0.62175366      -0.90701149
H        7.48432061       8.10189785       1.32961542       0.01985765      -0.06718456      -0.12853957
H        4.41732046       0.74923256       0.34615639       0.76597041      -1.45626750      -0.30317142
H        0.74627715      11.95894641      10.62753955      -0.04987970      -0.02951977       0.15976162
H        9.03295661      11.71152377       0.41765263       0.36789384      -1.22246341       0.68232259
H        3.10275914       0.99420522      11.18988633      -1.47907588      -2.22445119       1.21236169
H       11.51419733       5.75716751       4.80806633      -4.95997077       1.18106953       0.16805793
H        0.82427601      10.50782285       6.47443799       0.04288339      -0.23279252      -0.71681718
H        8.22572986       2.13873530       8.12362292      -0.53421028      -0.26934529      -0.18362809
O        5.98443211       9.07188379       5.76619435      -2.09876898      -0.23432550      -2.30118986
O        3.55258305       8.36874560       8.00987738       0.75940665       1.54175870       0.03024506
O        9.92123354       7.95915715       6.31904106       0.19915333      -0.22141243       0.02166179
O        3.89201212       5.35255774       5.05614831      -0.17294538      -0.01432717      -0.17725995
O        4.45286780       8.62122366       0.12649704       0.50504347      -0.21565796      -0.36585029
O       10.45753031       2.86134021       0.46576595       0.58255823       0.42813760       0.29859442
O        1.74049290       3.74846707       2.05054021      -0.32737364      -0.48402098      -0.62998096
O        6.39791818      12.25681962       7.15954041      -0.94840923      -0.64913082      -0.14071388
O        8.42572822      10.28013858       6.23380517      -1.31143501      -0.48713722      -1.17605052
O       10.46976217       6.46669505       9.42416612       0.19779760      -0.44338835      -0.61039680
O        7.74632272      12.42626720      11.67469834       0.13469960      -0.44860879       0.39541789
O       12.38287573       5.15304341       7.68181833      -0.47480730      -0.39935518      -0.81613846
O        7.41145635      10.98295367       3.29401207      -0.33128513       0.02574256       1.08160817
O       11.51139425       2.54169608       4.57815299       0.47288545      -0.40705532      -0.77061492
O        5.49016287       7.13425491       3.63855616       1.23737127      -0.94388522      -0.01777252
O        8.74628479       9.01990338      10.94843439      -0.15822521      -0.55622387      -0.46079029
O       10.47592060       5.80861460       0.08561972       1.28037621       0.50425554       0.26794782
O        2.23216237       7.63005735       5.71513759       1.13716122      -0.09272832       0.08009708
O        9.81721846       2.40169585      10.04132459      -0.63155871       1.19464208      -1.00872940
O       11.75771107      11.29588981       2.28433761      -0.90007497      -0.51624244      -0.43484015
O        6.97227394       4.91491388       1.98437787       1.67502841       1.63550401      -0.73762940
O        7.55603010       5.66490937      11.23013713      -0.97904559       0.29836346       0.47766859
O        6.28909897       2.08368695      10.15472085      -0.21105568      -0.84266011       0.01438279
O        7.34804529       2.45158369       0.55790753      -0.00111225       0.72494967       0.06883170
O        1.93259195       1.28872291       8.11436539       0.35806448       1.00512062      -0.82988529
O       10.76164710       8.60066233       1.08746370      -0.18103159       1.52862912       0.10262787
O        1.35097368      10.01460332       1.03220977      -2.23653081       1.07297140       0.03322415
O        3.21546760       8.64260943       2.74341099      -0.47506012       1.70299189      -0.02876852
O        6.80759311       8.06639395       8.49381772      -0.95376361      -3.05656073       2.03878989
O       11.84283530       8.34780601       4.18508586       2.58340778       0.28047283      -0.83056756
O        0.93373286      10.09560285       8.15962429      -2.07804268       1.95568718       0.20364789
O        8.83335155       3.12286839       3.29128356       1.03314265      -1.43946345       0.49461256
O        6.97821922       8.07228015       0.48459393       0.57598938      -0.05706220       0.50255374
O        4.54295083      12.19008439       0.54460393      -1.22711588       2.36982640       1.32329201
O        1.56829747      11.67905924      11.06265213       0.48047036       0.33258427      -0.83921522
O        9.38318325      11.14237732       1.18968570      -0.49011583       0.62554547      -0.67887540
O        3.47209366       1.62458953      10.62048788       2.21581728       4.20264137       0.78334768
O       12.40626745       5.66712062       4.75012481       4.31303883      -0.67626929       0.11828293
O        0.88825863      10.54100545       5.46383622      -0.42733484       0.04514892       0.35600721
O        8.45033959       1.65269863       7.31057115      -0.70511808      -1.13419754      -0.27393503
O        4.75682600       3.29536482       0.38720269      -0.55444090      -0.09044921      -0.80900076
O        7.27026369       5.90677892       5.88455703       1.18344009       0.74562939       0.01576351
O       10.75282853       3.27903621       6.93162257      -1.40711921      -1.48832151       1.40878265
O        4.52022723       5.52775263      10.74998372      -1.57085770       0.74206780       0.66949780
O        9.60779063       5.81939585       3.67249008      -0.39587202      -0.75224056       1.13146957
O        3.88878152      11.57567019       8.48721648       2.02163801      -3.41444988      -0.00219133
O        2.76325231       5.51371898       7.80336238       2.50420479       0.43114351       1.37397225
O        9.19639134      11.79838262       9.03606313       0.10864434      -2.09033537       1.03486901
O       11.71740505       0.59432637       9.09664138       0.54457543       1.60418520       0.16750140
O        2.95810750       2.31820875       5.31788023       1.44874964       0.51345240       1.15302671
O        4.93061354       3.21458447       3.11804392       0.03258813       0.26922398      -2.98666700
O        7.90631977       4.46551571       8.66702506      -0.40914565       0.03952068       1.50614570
O       10.08590424      12.02782697       4.74860259       0.37513884      -1.23005104       0.08110636
O        4.28521431       3.11239671       8.04926550       0.42390058       1.19866593      -0.98021408
O        0.97171250       3.42605856      10.33861903       0.75578932      -0.59986478      -0.55574756
O        0.98256357       0.61976471       4.09906169       0.00696798      -0.75234505       0.17322834
O        2.70425952       7.95180838      10.74133906      -1.64393527      -2.50921239      -4.12119675
O        5.84647548      10.44210247      10.83565818      -0.17932041      -0.06372608       0.08745121
O        8.77334467       8.51762446       2.84148120       0.33125060       1.13331813      -0.86274798
O        1.36784938       6.90972858       2.40935816      -1.26183330       0.12328728       1.51166522
O       11.62854578       9.62096752      10.45182851       2.94145505      -0.16056076      -0.05331163
O        0.81479453       1.78209345       0.27992555      -0.38559794       0.07213185      -0.52737688
O        4.12674507      11.38071898       4.73911336      -0.69917198      -1.15957519      -0.41130931
O        6.56759555       1.23934466       4.45168266       0.45353792      -1.63969067       0.53135904
192
Lattice="12.429 0.0 0.0 0.0 12.429 0.0 0.0 0.0 12.429" Properties=species:S:1:pos:R:3:forces:R:3 energy=-936.950825869518 pbc="T T T"
H        4.12640187      11.72026187       2.08453740       0.01907449       0.18229779      -0.28204055
H       10.87175104       3.72631702       0.85825722      -0.52935371       1.38493682       0.12579551
H       10.24789426      12.15709996       2.49803125      -0.87118734      -0.00623403       0.58218170
H        2.96721041       5.81324194       1.99020063       0.21846378       0.18272355       0.17050618
H        2.12390355      12.34705031       4.04401423       0.19017618      -0.54829762       0.52961227
H        6.33748038       3.66931175       5.59733479      -0.40219479       0.81253526       0.04772348
H       11.00118933       8.81572512       1.02818885       0.15347891      -0.01656724      -0.19691117
H        9.09296017       4.77391030       5.78961520       0.17362165       0.21471876      -0.63194682
H        8.56600396       4.02961748       3.48115671       0.18432264       0.02400175       0.10030601
H       11.85678248       6.77176714       5.45305259       0.39779505       0.53012117      -0.13665365
H        3.86637314       5.52196934       8.44767118      -0.90845971      -1.84447627      -0.63211858
H        7.52709264      10.34447213       6.57096340       0.01798374      -0.02742211      -0.32243681
H        0.76204181       6.19723836       2.09677728       0.61938841       0.15660835       0.33665076
H       10.04838319       7.74152701       3.18989412       0.18043095      -0.00273121      -0.07849586
H        3.98481698       7.58797368       0.61796834      -0.03329428       0.10179294       0.02491181
H       10.30864401       8.61594495       9.87053126      -0.26469201      -1.08785599      -0.62388416
H        0.07879272       0.20209479       8.68657318      -0.08982908       0.96756809       1.25104000
H        2.36145386       1.74075714      10.74380763      -1.33150649       0.79997449       0.09691756
H        3.96177616       0.31948009      10.10304712      -0.01091849      -1.18307497      -0.75040623
H       11.91268941      12.36465365       6.62767266      -0.60943731      -0.33150499      -0.48093084
H        0.87656322       1.22245660       3.27887110       0.45451333       0.17937134       0.01648317
H        4.54948153       0.33917837       5.00367645       0.35751912      -0.06629676       0.26543308
H        9.17942775       6.68317444       7.66386462      -0.37120486       0.08939735       0.10144574
H        7.48576040       1.18605738       1.69225989       0.41251308       0.64239453      -0.27111643
H        0.58755804       8.96638247       7.29977075       0.32218867       0.01523857      -0.24878154
H        4.71141060       8.30593808       4.68863155       0.09956022       0.13591315      -0.28855093
H        7.07379211       5.46826997       2.38220130       1.04177927      -1.36951741      -0.37399840
H        7.14891149       9.78656917       2.44782671       0.00182476      -0.78290191      -1.80158290
H        2.34971605       8.41589983       9.59852135      -0.39563046      -0.26639571       0.11138359
H        4.88973183      11.61856418       8.18673624       0.79002234      -0.18642944      -0.56980027
H        8.76947590       2.21250120       5.88767062       0.02121787      -1.10309172       0.33085768
H        9.92540577      10.68292575       6.49211749      -0.19141776      -0.82389398       0.10557238
H        3.76831397      10.29969624       1.58676179      -0.14530032      -0.51041048      -1.48299782
H        9.75246321       4.44333599       1.66622546      -0.76923876      -0.18361423       0.48708581
H       10.87376156      11.45271712       1.27272362       0.05200507      -1.35512567      -0.20778344
H        2.72077794       5.76835152       3.56956304       0.40190215      -0.03675394       0.46919404
H        2.56013363      11.13475149       4.94607880       0.04734319      -0.78021030      -0.16273655
H        6.40322426       3.40430052       7.18292580       0.08542635      -0.13443735      -1.14272658
H       11.05113869       9.78942504      12.25031006       0.27484850      -0.25546192      -1.41288553
H       10.33703645       4.28370786       5.06663382       1.00289997      -0.20499878       0.17987797
H        7.80103200       3.36650058       2.24816647       0.21321609      -0.48747532      -0.37714530
H        0.28171438       6.96041458       4.06805191      -0.76473306      -0.21367744       1.02137033
H        4.27578405       4.06272172       8.42582172      -0.88690458       0.10288449      -0.30545243
H        6.44728250      11.38331040       6.13838901      -0.51671867       0.62634451      -0.90869215
H       11.78966392       5.83082396       1.62530245      -0.13135848       0.71949932      -0.03132038
H        9.38310126       6.47232033       3.71018003      -0.11907830       0.64270429       0.02958356
H        4.98190180       6.66821743       1.29483922       2.66319155       0.04933563       1.75672263
H       10.11992256       7.07659129      10.15520183       0.08379508       0.39407045      -0.26120285
H        0.29615094       1.06733906      10.09652334      -0.45420875      -0.77247902      -1.09344469
H        1.26268167       1.66499659      11.79488786       0.35029728      -0.04334858      -0.33584756
H        4.28958765       0.99757641      11.48966399      -0.25843502      -0.01532880      -0.46618954
H        0.97967176      12.33612068       6.14032401       0.79665684      -0.31141464      -0.94252660
H        0.39408515      12.38284049       2.55042051       1.41792145       0.51669489       0.62047197
H        5.64836629       1.26251306       5.70394861      -0.11044330      -0.62601194      -0.64987061
H        7.70670793       6.95703050       7.11641504       0.85029920      -0.95151228       0.64082512
H        7.75070737       2.13042573       0.38051674       0.28314959       0.16801356      -0.13241642
H        0.49314600      10.51268239       7.32890026       1.02237087      -0.63243996      -0.56455770
H        4.21445948       9.49853745       3.68995848       0.15120640      -0.44337747       0.62102984
H        7.43566811       6.93149189       2.23520933      -0.79349006      -0.57367851       0.25978568
H        6.13430772      10.55048951       3.32466621       0.66788462      -0.43470195      -0.25287455
H        1.73362637       7.68672855      10.83191307      -0.00593948      -1.54724468       0.43690327
H        3.42197522      11.18286488       8.05608734       0.02861119       0.16106185       0.05470130
H        9.28632454       0.67841712       6.22804724      -0.01033909       0.35150426       0.69935639
H       10.30410641      11.21438025       7.94215064      -0.43993374      -0.80800455       1.29319194
H        7.30556555      11.73144760      11.50215162      -0.29841119       1.31050478      -0.69942904
H        8.95719256      11.85671151       0.67311100      -0.56914842      -0.39777866      -0.53652780
H        7.84511081      12.00620923       3.56899791      -0.19728531      -0.34242173      -0.33925258
H        6.07439207       8.80232313       6.71310763      -0.52754168      -0.38944456      -0.09182701
H        3.39550280       3.04945053      12.06200167       0.89004031       1.85327156      -0.05885424
H        7.76207506       6.19181410       9.36203833      -0.05438192      -0.39490041       0.64423256
H        3.04885881       5.09612417       6.07274894       0.16106309      -0.40485750       0.06026510
H        7.37530071      12.27604060       7.95603044      -0.51792111       0.70112548       0.14360954
H        8.54928198       9.75809735       4.65725256      -0.63746600       0.65369720      -0.98654730
H        0.71606982       5.86237689      12.29473848      -1.01443252       0.59249420       1.16289971
H       12.02924043      10.64076453       9.88507088      -0.45958728      -0.79596042       1.02261715
H        1.24250879       8.62325172       2.67224542       0.24971341      -0.92500490      -0.99119300
H       12.06820468       3.88003971       7.23349891      -0.72347932      -0.85930061      -0.53772201
H       11.48517142       4.06430461      10.26288902       0.44353471       0.13358164       0.10122929
H        0.25803913       6.61655265       7.63002964      -0.46854159       0.64484151       0.15388569
H        0.42745248       2.85787045       5.17556904       0.46451474      -0.01444210      -0.43824739
H        8.25976873      10.37625344       9.62572054      -1.10191192      -0.32081782      -0.14957528
H        9.53159433       5.90467910       0.00843809       0.25985650       1.63497979      -0.05358323
H        5.97913247       5.90674207       5.48923464      -0.36721590      -0.16419267      -0.50374326
H        5.92369129      10.51240145      10.69231863       0.11459909       0.90382160      -0.52356318
H        2.70166690       8.46754737       7.06072834      -0.10100855      -0.77856685       0.52319339
H        7.96948356       8.34909445       0.34525887      -0.01050741      -0.31574923      -0.23890486
H       10.37864852       1.35052121       9.02001469       0.70159653      -0.50924984       0.44506319
H        6.58607316       2.61563568      10.11170727       0.24461224       0.52798288      -0.22171491
H        4.38977773       9.34544543      11.63401185      -0.20666518       0.20112823       0.69249670
H       12.29841428       1.91978349       0.08100092       0.90799027      -0.41513248      -0.36620686
H        0.74750803       5.37116702       9.61121566       0.15712303       0.84281249       2.01249598
H        3.44382823       2.83730633       3.63498513      -0.69925119      -0.06626586       0.48519771
H        1.48544432      11.92249172       0.66801105      -0.26183165      -0.34196278      -0.75550336
H        4.29887148       1.55717513       1.64019806       0.54815631      -0.23919465      -1.38153333
H        8.05606676       4.25564560      11.19779754       0.63470724      -0.04904529      -0.01491545
H        4.47737710       6.23505340      11.16112914       0.13265020       0.68289596      -0.12596989
H       11.44803735       7.50347875       8.09702735       0.90465777      -0.18447088      -0.63729977
H        0.81672277       3.54368204       3.84912093       0.05037052       0.24212894      -0.09893908
H        8.90861819       8.54898363       5.39974321      -0.01204969       0.75533033       0.35563622
H        1.60370924       4.79524420      11.66741902      -0.00937208       1.74220055      -0.24563075
H        0.30019941       9.52451874      10.63274885       2.02951045      -1.30989424      -0.04781739
H        2.08285530       8.88758172       3.99315716      -1.04559503       0.16036185      -1.10264088
H       11.09462222       2.71206629       6.61161725      -0.06894915      -0.26102623       0.91761469
H       10.25763186       3.63346147       9.55017248      -0.47913754      -0.26146973      -0.20525374
H        8.90789613       1.54905580       8.51592199       1.15515699       0.43171973      -0.01699185
H        5.15881109       2.21879273       9.98375980      -0.77392772      -0.21059482      -0.11068738
H        9.36503818      11.09390074      10.28875169       0.16467377      -0.51956832      -0.22216318
H        8.63494300       6.60137677      11.43185639       0.36929424       0.51545169       0.45890235
H        6.17904458       5.48821986       4.02633261       0.65658583       0.81578035      -1.01537103
H        5.86875149       9.32644500       9.59700696      -0.08338108       0.45601956       1.37711323
H        2.75191534       6.85022444       7.09330707       0.15194537       2.33806654       0.93370811
H        6.70497620       9.16823433      12.26236258       0.32387733      -0.37400176      -0.04702739
H        9.47963697       3.65048366      11.69004810      -1.73936822       0.09574649      -0.62451235
H        4.96537106       4.97026108      10.81346769       0.06539033      -1.56374204      -0.20185671
H        2.94418991       9.60556194      12.05960261       0.00090537      -0.06917233      -0.02564973
H       11.09409240       1.24739030       0.92922748       1.18949742       1.73792375      -0.90556647
H        1.69559715       4.72690390       8.57295552       0.40600684      -0.07107211       0.27526704
H        4.80097605       3.58623398       3.53683465      -1.55200572      -1.18201690      -1.13216045
H        0.72806136      11.30871261      11.81001115       0.02514082       0.20254072       0.47996522
H        5.64009194       1.42954691       0.89399827       0.34766704       0.19270155      -0.15839615
H        1.65064283       5.61077728       5.58355040       0.80919342       0.18760663      -0.40872914
H        6.53722462       1.20434680       8.40407631       0.48953869      -0.35532524      -0.30343940
H        6.85614572       0.13195656      10.10792434       0.69211438      -0.19828314      -0.03764705
H        8.31424037      10.37137838       0.33519674       0.20057265       1.79317206      -0.62602562
H        8.72834048       0.74955556       3.94966176       0.06556935       0.57044005       0.51963696
H        4.89759773       7.87884999       7.20211267      -0.25600859       0.04111068       0.04578510
H        4.31445792       3.99605907       0.42821604       0.38977828       0.03028783       0.93807344
H        6.54746769       6.07029623      10.38623246       0.33390555      -0.06115652      -0.06069550
O        4.10335008      10.78734348       2.32530876       0.66458789       0.49168661       1.94062777
O       10.44345866       4.64714106       1.02056753       1.91176718      -1.21486475      -0.70040737
O       10.97568327      12.19117183       1.87451499       0.85937491       1.41374902      -0.10308018
O        2.30200179       5.79476024       2.70343232      -0.54237953      -0.19434968      -0.67754662
O        2.58500845      12.08866918       4.90695067       0.11373047       0.98940495       0.22678879
O        6.57511994       3.02839249       6.27879373       0.31785217      -0.72798088       1.32201525
O       10.85981582       9.73499097       0.75070708      -0.34247479      -0.02351139       1.36239764
O        9.48960611       4.69262425       4.88597806      -1.24258092       0.24998541       0.78203088
O        8.39124086       4.10036493       2.52058051      -0.67435782       0.35286588       0.55060296
O       12.25849455       6.32485840       4.68662829       0.48629183      -0.33951950      -0.65613348
O        3.52726445       4.61712627       8.06895202       1.96772065       1.67067976       1.13757894
O        6.66195447      10.73535304       6.81383765       0.19145359      -0.40302170       1.36637162
O       12.39520176       6.61959407       1.72258547      -0.86772345      -0.60410637      -0.57670649
O        9.18360133       7.41966665       3.48571547       0.11309862      -0.70115410       0.24751858
O        4.24867196       6.65294515       0.73631322      -2.49254667      -0.01714521      -1.82497802
O       10.10144243       7.73950630       9.42494553       0.43112470       0.35658157       0.40454731
O       12.11013706       0.43760384       9.59064773       0.52490167      -0.28966009      -0.45078436
O        1.44397939       2.20114661      10.99292343       1.51834425      -0.97601744       0.10449772
O        3.95848349       1.15707037      10.55552378      -0.09141225       1.22725474       1.49712529
O        0.38666913       0.19147816       6.83258599      -0.17111832       0.72477492       1.40044943
O        1.25897694       0.41665442       2.84781936      -2.18192211      -0.31588036      -1.11981486
O        5.52403827       0.43574581       5.16105250      -0.20693030       0.45771955       0.45239954
O        8.32614544       6.24136532       7.46878255      -0.64515847       0.87760501      -0.70796107
O        7.27310711       2.03711862       1.22646408      -0.61261463      -0.72454249       0.58642173
O        1.11216007       9.77605610       7.05553953      -1.07708451       0.78545918       0.69290206
O        4.05101086       8.99786450       4.53115706      -0.51356640       0.48166935      -0.21234469
O        6.65437391       6.31877551       2.32707668      -0.03016098       1.92294682      -0.14643127
O        7.06080513      10.20095590       3.28536563      -0.82645094       1.17555918       2.01321160
O        1.82567940       8.53111148      10.41805888       0.45259501       1.60700862      -0.45688280
O        4.04335794      11.68018954       8.61808780      -0.85601164      -0.23049378       0.27725440
O        9.15580936       1.36757022       5.56046706       0.15431022       0.74077069      -0.99796588
O       10.23246412      11.42288378       7.02556086       0.38398311       1.65747223      -1.55059886
O        2.63789866       5.74890037       5.48591534      -1.13633412       0.14534357       0.46578013
O        7.36609501       0.67429522       8.50846045      -0.12916896      -0.28244950      -0.18251357
O        6.55883914      12.15532163      10.94039150      -0.63071044      -0.90583752       0.94654616
O        8.51118749      11.34465519      12.38745765       0.58282900      -1.23354223       1.15979953
O        8.38122947       0.28109151       3.16904477       0.27084980      -0.28219292      -0.46825614
O        5.74586267       7.86858443       6.72259584       0.81355276       0.23309121      -0.02578782
O        3.78871723       3.99043298      12.06356721      -1.31981592      -2.03503155      -0.70354783
O        7.53752010       5.93603733      10.29599391       0.24648942       0.34631362      -0.60250485
O       12.16020257       7.42097027       7.37091049      -0.89238002      -0.55058569       0.92192564
O        1.03291833       2.76385932       4.37970913      -0.35651061      -0.10134508       0.35820894
O        8.73306319       9.51729872       5.56356175       0.81758688      -1.57636496       0.46387124
O        1.32915731       5.76971301      11.57649761       1.01385816      -2.12514062      -1.01379672
O       11.86181016       9.85860605      10.49760915      -1.52895873       2.33368865      -0.92179278
O        1.26632614       9.14949778       3.45591434       0.73071342       0.55448707       2.04188128
O       11.69925435       3.43853757       6.41780503       0.65592915       0.99447420      -0.13050007
O       10.55681131       4.31010419      10.18085822       0.39598449       0.20672854      -0.13874464
O        9.84684518       1.92118912       8.46195016      -1.51545530       0.32776933      -0.44616661
O        5.81426994       2.80150774       9.54210078       0.62927573      -0.03644905      -0.00327084
O        9.20921572      10.41405376       9.58977412       0.86709478       1.05530419       0.54683959
O        9.33333103       6.85945983      12.12391769      -0.73600659      -1.82191674      -0.26750626
O        5.62306776       5.32357189       4.77842322      -0.37396797      -0.42678261       1.64679879
O        5.84628849       9.54192528      10.57224691      -0.09146785      -1.19517978      -1.01891229
O        2.86222446       7.71088266       7.68743673       0.34258431      -1.41098181      -1.58887686
O        7.36176193       9.08612070       0.55792924       0.10702019      -0.02099797       0.34794183
O        8.49157270       3.46224130      11.58004740       0.31240949      -0.46925208       0.43725962
O        4.99411051       5.84338191      10.42100610      -0.88408101       0.92511040       0.23073728
O        3.82405499       9.45271022       0.02540491      -0.09130949      -0.43223007      -0.92959431
O       11.45765092       2.11595427       0.45165625      -2.47472060      -1.21784603       1.56014954
O        0.78118166       4.99520478       8.75569780      -0.52651559      -0.80039831      -2.50517335
O        4.12021254       3.04679245       2.98868418       2.00516597       1.20385915       0.71555572
O        1.48691584      11.84435093      12.11206011       0.20414961       0.21821843       0.50713292
O        4.69687962       1.19280229       0.78106308      -1.15059075       0.12644853       1.56554933
192
Lattice="12.429 0.0 0.0 0.0 12.429 0.0 0.0 0.0 12.429" Properties=species:S:1:pos:R:3:forces:R:3 energy=-940.2725306067858 pbc="T T T"
H        5.55273008      10.48176108      11.36155873       0.98438716      -0.15335509       0.66569055
H        3.98952047       3.33549284      11.37739532       0.75616506       0.34774449      -0.83525049
H        0.29542786       0.89877688       3.47965102      -0.84909361       1.24918586      -0.77057529
H        9.81444244       8.09005161       0.53961453      -0.15334108       0.28386903       0.44495535
H       12.40087706       9.15689054       5.79187372      -0.88857010       1.30414522       1.56390598
H        8.43407784       5.16671191       5.93320830      -0.13833287      -0.03160738      -0.16112367
H        0.24801365      11.42951099      10.29106099       0.15785840       1.53927446       1.20695135
H        9.40600518       2.27907667       2.58132968       0.34667746       1.72768784      -0.65394924
H        3.39233913       5.41690538       4.99245470       0.79022523       0.34170945       0.21603510
H        1.10921380      10.84367632       2.28085015      -0.12629317       0.06469549       0.32263574
H        0.43602632       9.14371534       9.56198277      -2.24137300      -0.70639155       0.32969701
H        8.72861178       9.80865756       1.57897942       0.14693377       0.02292648       0.36677683
H        7.06799041       4.57734026       0.40751602       0.90766683       0.71654437      -0.14113899
H        5.53220514       4.83651414       1.72648921      -0.52188060      -1.42614456      -1.10527844
H        1.33123412       5.77399386       0.25207818      -0.35860419      -0.30307393      -0.19527303
H        3.28463812      10.86924349       6.15589140       0.10508525      -0.10827411      -1.01641452
H        7.86596022       1.77813930      10.25660787      -0.17596364      -0.29928855      -0.19136922
H        7.71222798       4.07577989       8.16894028       0.48948137      -0.47908731      -0.40283893
H        2.88780835       0.74647898       0.18891642      -0.11631779      -0.21008642       0.03957956
H        8.69577761       1.90242312       8.09157019       0.04667228      -0.83272634      -0.89003440
H        0.99984238       8.15878317       4.29867190      -0.00796763       0.13279601      -0.62988479
H        6.45304445       0.35437068      12.35333125       0.25955172      -0.58883614       0.99532495
H        4.24059115       6.70617683       2.16525303      -0.76270157       1.30148530       0.10906243
H        0.50876838       0.22419581       5.54304685      -0.21380650       0.39421133       0.13352563
H       10.00096470       7.63092839       7.51149133      -0.03298596       0.08486725      -0.47456625
H        2.64469426       0.10989596       2.75117400      -1.11254039      -0.44113403       0.78480631
H        0.53947250       3.66265127      10.63732401       0.04709035       0.10465395      -0.01096632
H        9.39378795      11.78496530      10.30263499      -0.25177479      -0.52107167      -0.23512460
H        2.52957957       8.29341917      12.11514885      -0.65517726       0.05295172       0.20169747
H       12.06589502       1.23627363       8.00266664      -1.08329980       0.73083664       0.77758240
H        6.54176571       1.96083638       4.73030794      -0.87415173       0.57194342       0.34699586
H        7.70778734      10.73334147       8.45404893       0.14438872       0.06024410      -0.09892236
H        4.15348022      11.25357899      11.71910645       1.24903539      -0.83296518      -0.98977282
H        4.65616854       3.08240317       9.89641603       0.04000065       0.57821528       1.06181271
H       11.40035918       1.50776870       2.73630591       0.14654534      -0.36694421       0.40729953
H       11.01622750       7.04327414       0.68920122      -0.45020207       0.09780014       0.05319303
H        0.69614664      10.13622575       6.70477695      -0.57402988      -0.02240358       0.26750636
H        9.42021979       4.51372580       4.90642113      -0.32874827      -0.21290274       0.19385662
H       11.85104452       0.00602122      11.27436831       1.16462182      -0.32818209      -0.70033985
H        8.66394527       1.22844959       3.24529013      -0.64699796      -0.54490336       0.60518571
H        1.87912668       5.61575881       5.03450060      -0.58083975       0.30173745       0.48507394
H        1.18564700       9.73454817       1.22873395      -0.44793406      -0.03269084       0.41825426
H        1.67083232       9.48847222      10.52715787      -0.59948437      -0.32539457      -0.86909205
H        8.29951804       8.32628315       2.07995034      -0.03783586       0.59434601      -0.57688180
H        5.98012801       3.88742332      12.07210837      -0.32206927      -0.12963669       0.10639604
H        6.10934453       5.84925595       2.44280299       1.64828002       1.36942565       0.74678458
H        2.45095694       6.54672309       0.92617239       0.23708857       0.43965421       0.23933273
H        3.28073904       9.84364573       5.00199372       0.10721461      -0.56521440      -0.35588585
H        7.26632027       2.23046992      11.52892453      -0.26000764       1.48994395       1.44264662
H        6.85893791       5.19371027       8.60859831      -0.09148823       0.25539889      -1.08804361
H        2.11355184      11.92089873      12.09555514       0.16281625       0.37781827       0.41718734
H        9.72602538       2.71627769       8.88570185      -0.52889769      -0.27204133      -0.34637494
H        0.10601948       9.00624579       3.20815975       0.83350027      -0.65816270       0.35751821
H        7.08207733      12.00039028       1.15463599       0.29191816       0.07838591      -0.25783865
H        4.00070197       8.40337721       2.05508645      -0.73869723      -1.79823830       0.23894641
H        1.41807436       1.42791363       6.02321405       0.03901937       0.28530786       0.03088645
H        8.58897314       8.17096124       7.85953118       0.15669006      -0.39184766      -0.09181599
H        2.37064754      11.73132465       4.05736140       0.27752185      -0.19657077       0.02241197
H        0.65803932       2.36177182      11.38939185       0.05647849      -0.32027331       0.12471914
H        9.96072402      10.42156944       9.92406021       1.05609336      -0.93094140       0.06560379
H        3.30456133       9.54916446      11.78874790      -0.41546767       0.19729386       0.19023012
H       11.56952027       1.30631983       9.49658168       0.32752179      -0.32386989       0.17678923
H        6.58756447       0.43525181       4.23403274      -0.99955181      -1.49662240       0.25450968
H        6.34683377      11.14673647       7.81431226       0.17526883      -0.05353062       0.17973836
H        4.87411786      11.39610744       9.51131795      -0.08528744      -1.00577329       1.78341975
H        5.65946908       3.10015890       8.23641922      -0.00009746      -0.42109837      -0.15685715
H       10.86157247      10.66960707       1.43077994      -0.70041125       0.81433439      -0.03003173
H        7.58003080       9.09130686      12.10125203      -0.97553083       0.42283328      -0.55993521
H        0.41574142       3.23632341       8.67706069       0.92208977       0.86070140      -0.44912877
H        3.87012925       6.77983371       7.04565405      -0.30258957       0.41175356       0.31907603
H        9.26402113      10.44212776       4.30103338       0.87442305       0.45156681       0.55301075
H        5.71444419       4.13161919       4.51596951      -0.27273791      -0.06732198       0.00803945
H        8.18944801       6.12513131       3.43777924       0.00755705      -0.30941476      -0.29873412
H       11.75694318       6.08091239       6.44077531       1.55343004      -1.35854717      -0.07181711
H        9.78077758       1.30323084      11.44572390      -0.57676306       0.57800531       0.58451242
H        8.12867561       0.93074244       5.92066509       0.10503659       0.06641035       0.05580079
H       10.41500033       0.19330255       5.33990573       0.82814209      -2.05218925      -0.09097199
H        6.60984717       8.13658416      10.23537718       0.33394305       0.07442228       0.18124158
H       10.97224513       7.71560567       4.81009303       1.04444012       0.54918913      -1.21848038
H       12.17969066       5.26425290       1.95453593      -0.21757497       0.59050127       0.32856509
H        6.50603908       7.68677779       7.99709997       0.31933696       0.51250591      -0.13213586
H       10.53763565       8.45537701       9.48780615      -1.16202414      -0.58575589      -1.46996552
H        1.72816771      10.82015099       8.39121526       0.40415121       0.74551007      -1.00462968
H        6.86251992      10.59973818       4.45768875       1.58903371      -1.20047955       0.31446772
H        4.10035932      10.73921759       1.52968961       0.00999033       0.22754756      -0.17510207
H        8.88552564       6.40944045      12.06322482       0.54545630       0.13218409       0.11589411
H        5.33654497       1.68126627       2.63233074      -0.63299407      -0.06311717      -0.21565586
H        3.36622364       7.54340153       5.32215614      -0.84582449       0.94806834      -0.41796176
H        2.75843527       6.58815931       8.46773592      -0.82603296       0.20484905      -0.66227615
H        9.64819642       3.74323081       1.01826690       0.29943447       0.37092539       0.91274611
H       11.01500767       2.80127390       4.54981317      -0.47527529      -0.51180295      -0.17160807
H        0.68959236       3.13823741       2.60280834      -0.26496610      -0.33537698      -0.20725984
H       10.60126471       3.27716480      11.44347235       2.08263843       0.22721126      -0.95971591
H        3.68889990       2.52237734       1.05246047      -0.27974277      -0.10783554       0.00728271
H        4.04265517       5.16422853      10.24118891       0.31590104       0.25219234       0.02275856
H        3.47325764       2.79282163       6.64507096       0.46350674      -0.17070643       0.27289773
H        9.83538111       6.68359505       5.10482984      -0.30196543      -0.38290294      -0.23481722
H       11.66347856       6.53014365       2.76535216       0.30510211      -0.21886279      -0.35860358
H        8.57976965       5.55713618       2.05538464      -0.09752273      -0.15254053       0.15335826
H        0.39106486       5.18963745       7.34889832      -0.52207636       0.23637908      -1.32131895
H        9.96544570      12.40841857      12.31347839      -0.80198501      -0.81581160       1.87942613
H        8.28159766      12.17381399       6.85547618      -0.17556509      -0.43922212       0.32386430
H       11.19542978      11.17844215       5.76399393      -0.66543804       0.98616643      -0.79213905
H        5.46276512       7.18146051       9.87260995       0.50749799      -0.49235083       0.04205031
H        4.16073673       2.21317987       3.44584234      -0.19747763       0.47539452       0.71198701
H        3.10743728       7.72747322       3.82646108      -0.22138018       0.59167930      -0.22362705
H        6.89997804       9.04590754       7.14956038      -0.61438664      -1.66057708       0.30434489
H       11.19695392       8.28906588      10.79320391      -0.04529002      -0.28177938       1.21697583
H        1.67973230      11.99853106       7.13031327      -0.47733690       0.03450888       0.77682991
H        5.55458941      11.16200735       5.09669943      -0.55285985      -0.42912698       0.05507044
H        5.16234125      10.63273170       2.67277561      -1.11721020      -0.58460318      -0.31470358
H        7.76789707       6.21345211      11.06003567      -1.04520898       0.86092260      -1.35669125
H        3.25783628       6.30108658      10.95370223       0.88983641      -0.18259360      -1.33831418
H        2.62574209       3.68059908       5.75402472      -0.20603685       0.84123549      -0.69689580
H        2.02194520       7.84977201       8.38005340      -0.41818453       1.03910738       0.14499724
H       10.26295203       4.60181096       2.25335015       0.16056413      -0.12046211      -0.37209053
H       11.40105563       3.81886337       5.48395758       0.88688676       1.15647094       1.12848716
H        1.64828682       4.18051037       3.10041045       0.76371900       0.65849134       0.74320269
H        9.15789329       3.96019203      11.28289074       0.60436262       0.09792374       0.20730236
H        2.36663081       3.27652397       0.87317445      -0.04458350      -0.39700824      -0.13759871
H        8.67295048       9.08685896       4.85933854       0.40230606       0.31136510       0.02479603
H        5.83063222       3.95426909       6.01419202      -0.01105980       0.15695288       0.27754444
H        4.05267003      11.98100871       8.39459567       0.79885358      -0.09045712       0.17391486
H        5.26022100       1.56016568       8.43427335       0.28145722      -0.16325383       0.22239271
H       10.03434100      11.97273450       1.84218296       0.09535560       0.19245732       0.55328361
H        7.92248684       9.74704376      10.76572959      -0.51544482       0.41004186       0.01526729
H        1.77720022       3.59541435       7.94150815      -0.37069240       0.05726002       0.20239909
H        5.26811783       7.13729003       6.36396512      -0.82862439      -0.98099086       0.49992099
O        4.63118811      10.56020994      11.11202147      -2.32583583       1.20431721       0.55758289
O        4.67242931       3.70427380      10.71888001      -0.97896709      -1.20405066       0.22900955
O       12.20450877       1.74142344       3.24321038       0.85946399      -0.74867347       0.29355617
O       10.43117245       7.51809006       0.05286906       0.43759834      -0.33273721      -0.77673466
O       12.19953947       9.80936235       6.57308240       1.37824043      -1.26089075      -1.87274140
O        8.62786472       5.11763879       4.97645044       0.18498712       0.28536478       0.18028412
O        0.34459531      12.27045754      10.86531371      -1.02589947      -1.22633022      -0.55047976
O        9.44990272       1.33420778       2.69987046       0.22601104      -1.48073679      -0.09419964
O        2.56394078       5.02875470       4.70086206      -0.27734318      -0.63284724      -0.71026338
O        0.60107890      10.06233539       1.96117425       0.26797631       0.25195277      -0.90117789
O        1.31409983       9.47275366       9.57444398       2.86323477       1.26578434       0.23117832
O        8.35977549       8.94928375       1.30950823      -0.14381003      -0.81463681       0.00977475
O        6.43459102       3.86741542       0.51717342      -0.56003417      -0.64478539      -0.27123082
O        5.26059335       5.42700255       2.43665137      -0.97969261      -0.06307484       0.62810892
O        1.96649116       6.47525923       0.07985060       0.22225462      -0.15707515      -0.12830127
O        3.54912299      10.76517726       5.18915244      -0.37479449       0.77125522       1.57906152
O        7.29814142       1.46034218      10.99635358       0.35228047      -1.10690687      -1.22690089
O        7.10075561       4.72639283       7.76428306      -0.33878891      -0.01074808       1.40775673
O        2.85900301      12.19239733       0.25720414      -0.19998854      -0.24728578      -0.54457068
O        8.75541703       2.58055385       8.77491026       0.31917804       1.00350427       1.03112641
O        0.13676831       8.20403955       3.81587368      -0.75401110       0.09009129       0.34877954
O        6.25441710      12.34646925       0.80131655      -0.51092160       0.47247988      -0.68372415
O        3.53513953       7.47356211       2.17475750       1.58772525       0.47107087      -0.26187421
O        0.73695626       0.78653629       6.31078645       0.07767870      -0.49672848      -0.07472376
O        9.40319484       7.79689821       8.25275376       0.06361059       0.02459783       0.50286700
O        1.89317849      12.18989977       3.32845186       0.90115769       0.61345220      -0.72666010
O        0.12528642       3.16810248      11.37006870      -0.01730198       0.27613137      -0.11782191
O        9.17716903      10.94911711       9.80683725      -1.09753368       1.13731645       0.07236205
O        2.38822575       9.26125427      12.07517272       0.96972245      -0.18717158      -0.35381265
O       11.44949740       1.73134346       8.63710617       1.08442170      -0.35673344      -1.01458902
O        7.04514375       1.26494914       4.31203352       2.03134327       1.33658166      -0.51672775
O        7.21119420      10.70858974       7.60748876      -0.14015065       0.05837986       0.00301530
O        8.55309777       9.80470577       4.21310196      -1.03896285      -0.83226021      -0.33141810
O        5.37892907       3.56957754       5.24508661       0.39015243      -0.00944462      -0.42317803
O        4.97795622      11.98656015       8.77742968      -0.93557473       1.17924546      -2.29523271
O        4.92402859       2.47313880       8.41585041      -0.13219876       0.48717557      -0.41633165
O       10.00495630      11.17180969       1.29508789       0.74529546      -0.71439941      -0.13462366
O        7.11924083       9.44425802      11.26609654       1.64080408      -0.46236955       0.65938420
O        1.13056194       3.95058535       8.61163505      -0.81561414      -0.97051745       0.31863979
O        4.54575614       6.42242515       6.45139237       1.20222039       0.65982970      -1.07460063
O       10.46295084       7.30796688       5.49511468      -0.80443967      -0.21365305       1.60350774
O       11.45109185       5.94940584       1.99570747       0.66613447      -0.37686989       0.50099108
O        8.06772833       6.27796193       2.47227959      -0.26047921       0.58698981       0.35531455
O        0.05392749       5.35376827       6.40281689      -1.03967537       1.04147585       0.88380927
O       10.19182677       0.44138612      11.53062268       1.24196685       0.30749465      -2.32007014
O        8.61193767       0.64655104       6.72899650       0.06022151       0.56538770      -0.43480195
O       10.82979953      11.74872642       5.00180269      -0.17754450       0.76190586       0.80393217
O        6.44327671       7.30083388       9.73572473      -0.97812973      -0.15603689      -0.04754650
O        4.35596686       1.80988535       2.60229947       0.94337526      -0.48238859      -0.42475197
O        2.82879849       8.13741591       4.70028982       0.84952507      -1.35367963       0.63493185
O        6.75038171       8.02141893       7.09024448       0.25749746       1.43955604      -0.34884685
O       11.14057847       8.91044267      10.06542512       0.97051381       0.90560019       0.31321551
O        2.19647289      11.31897850       7.63147231       0.33183771      -0.81188430       0.70381487
O        6.17972845      11.24269362       4.36690647      -1.15307481       1.28284479      -0.77244326
O        4.34566851      10.19040288       2.28589378       0.97643080       0.22217441       0.43945218
O        8.19443078       5.78605680      11.78215873       0.49292173      -1.04130685       0.95494070
O        3.86856433       6.14590183      10.15124997      -1.38728620       0.42226504       1.16438943
O        2.55590527       2.98693913       6.42395174      -0.25757967      -1.07814738       0.63054138
O        2.21677236       7.11509652       7.79008138       1.22031412      -1.22416255       1.09474535
O        9.61380373       3.90597611       2.02095116      -0.46057142      -0.12250874      -0.62727035
O       10.61687494       3.31552857       5.27984567      -0.19196322      -0.61106447      -0.82395423
O        1.16489449       3.94987984       2.30795576      -0.49638053      -0.09610120      -0.72972413
O        9.75175319       3.39298623      11.82038472      -2.43151992      -0.24079447       0.67324714
O        2.95428213       2.63993191       0.39722718       0.35422227       0.47862671       0.03536018
192
Lattice="12.429 0.0 0.0 0.0 12.429 0.0 0.0 0.0 12.429" Properties=species:S:1:pos:R:3:forces:R:3 energy=-932.9125117514441 pbc="T T T"
H        3.24685876       0.22952499       4.66384260      -0.33189862      -0.38377017       0.22767302
H        5.33461045       9.27499697      11.00749047      -0.52761438      -0.93227047      -0.06713065
H        9.83742032      11.43462875      12.21036051      -0.62719236      -0.67156338      -1.20046637
H        3.96956950       7.42434526       4.57873490       0.36369702       0.15446720       0.25900944
H        2.64868155      10.63569427       1.80664375      -0.46774912       0.73766421      -1.31289635
H        8.64188991       6.23873492       8.66301308       0.80219701      -0.48254520      -0.14615651
H        0.44991196       6.46115711       2.56414142       0.39280898      -0.76072067      -0.90602445
H        6.54839994       4.63792275       4.13398667      -0.22956194      -1.34925850      -1.68778680
H       11.88668544       3.04043795       0.17128106       1.01920101      -2.61170743       0.41560242
H        1.85662223       6.34756971       8.68332109      -1.42785321       0.91751699       0.95761092
H        7.19168163      10.44264538       0.69810260       0.07081632       0.22075899       0.07077139
H        2.56477756      11.76521179       8.68551504       0.53911831      -0.36767139       0.28889783
H       10.74294335       9.53322469       4.11259395      -0.16470893       0.68639505       0.64756026
H       11.01698509       8.39925455       6.49916203      -0.68467492      -1.58717240      -0.04212922
H       10.58917865       8.38640726       1.55839107      -0.80542953      -0.97851223      -0.88012941
H        8.84262263       8.18414224       5.20013806      -0.24805797       0.48201646      -0.21998649
H        9.93631546       4.45869645       9.67046391      -0.53639152      -0.66936917       0.88587020
H        9.53456192      11.49615187       7.85385223       1.03512515      -0.42984609       0.38723715
H        5.79496541       2.12316346       0.78268821       1.00016027       0.31151853      -0.61500671
H        0.04139706       0.70100038       0.31687594      -0.24271199       0.70440399       0.11925645
H        3.44664241       1.64635174       0.11481672       0.64921092      -0.39623205       1.19428992
H        7.04327126       3.77215221       1.99069283       1.00078418       0.65544338      -1.52932552
H        5.92824872       4.90900760       6.96151624      -0.14853017       0.12005002       0.46067687
H        8.17712018       2.03808754       0.31349016       0.48425805       0.01872182       0.44290572
H        1.01804363       6.15319858       5.01692682       2.15823870      -1.52747058       2.06916511
H       10.77644713       4.18639648       1.64849211       0.32237331      -0.29658827      -0.52340277
H        8.90827824       1.13708584       3.66058484       0.34446240      -0.60619722       0.73809009
H        6.07864545       9.32207053       3.90878377       0.19959211      -0.33476086       0.22155812
H        5.23563957       8.32610436       8.68615833       2.47052313      -0.78313676       0.34603450
H        9.25123482       3.14691963       6.62140777      -0.73306067       0.12288813      -0.45470181
H       11.55089262       8.42804215       9.48227165      -0.09832302      -0.14157361       0.17298990
H        1.42618937       9.64082828       7.29148674       0.55565035      -0.89110092      -1.87857586
H        1.93564792       0.03067500       5.47833446      -0.90623928       0.55031502       0.24894716
H        5.44347873      10.52997718      11.79050751       0.36736303       1.03248909       2.88129854
H        9.78260648       0.29508187       0.61791033       0.05300741       0.04103475      -0.02759395
H        2.91229156       7.83483490       5.60170537       0.72626184      -0.65674233       0.01750253
H        3.23049921      11.74966547       0.95618121      -0.50548660       0.11335427       0.01603489
H        8.94101891       5.10635618       7.65697822      -0.79555790      -1.06588602      -1.05626007
H        1.68721800       6.00879575       1.72901234      -0.84584186       0.21739794      -0.16741960
H        7.66188512       5.34089807       4.83071894      -0.49522503      -0.18694834       0.25960868
H       10.93435154       3.88706148      11.81796032      -1.34667019      -0.06897507      -1.52792678
H        0.81454361       7.44770861       8.18694630       0.24788761      -0.51201459       0.59052253
H        6.73447821       9.40827740       1.64841219       0.19259193      -1.71390456       0.71983319
H        1.95880725      10.63265494       9.52763070       0.52500303      -0.96070887       1.77603075
H       11.39705734       8.42088699       3.37699549      -0.57112290      -0.00335077       0.19470378
H       10.37152542       7.21492049       7.36598449       0.53738713       0.31111843      -1.59185716
H       10.67381788       6.96583935       0.84125575       0.09982235       0.23413643       0.06061042
H        8.12610125       9.57841257       5.33445448      -0.13873150      -0.89217098      -0.45907474
H        9.95725220       2.90819824      10.11273223      -0.69234684      -0.08421722       0.00963562
H       10.82253962      12.29398828       7.86791094       0.13486111      -0.87582707       0.19969570
H        5.90944176       1.88141911      11.71510825       1.34105689       0.76873164       0.99667704
H        1.08192684       1.36948251       1.10552248       3.00254858      -0.19696699       0.93017174
H        3.15719585       2.38460958       1.40840134       0.99350034      -0.85298934      -0.05314531
H        5.55184353       3.83179230       2.48360660      -1.12798764       0.28915005      -0.74194617
H        4.81590388       5.86043453       7.12741897      -0.53331063       0.44085948      -0.38585309
H        9.10984054       2.42816339       1.49417918       0.09673869       1.17911029       1.39588757
H       12.00977021       6.79241335       5.17809663       1.46881227      -0.63038010      -0.74974591
H        9.88535388       5.14572132       2.42417895      -0.11100934      -0.69308763       0.47308383
H       10.07984876       0.11976427       3.93047172      -0.36047870       0.33496255      -0.00267100
H        5.28486779      10.04364837       5.00243232      -0.32779801      -0.07231299       1.89028684
H        4.11622867       7.91151055       7.77163617      -0.24218918      -1.30979963      -1.16237387
H        7.71368636       3.27609656       6.12352656       0.63714008       0.14786474       0.50187850
H       11.04265589       9.50244310       8.53111201      -0.59140952      -0.64750144       0.64744907
H        0.48768446       9.38145271       6.14326451      -0.35228377       0.13703535      -0.81420679
H        4.89002604      11.71989846       8.46995515       0.47270389      -0.49802720      -1.58715867
H        0.75388997       0.76789406      10.35476414      -0.55699293      -0.18628334       0.61233762
H       10.97289853      11.55648956       2.34128322      -0.15874908      -0.24431118      -0.46227389
H        4.52797038       9.98892598       7.16320310      -0.09164520       0.54755615       0.10418162
H        0.33197575       3.93064124       2.96609921      -0.83408128       0.67082107      -0.42893244
H        9.19815582       0.84655745       9.99730623       0.56046109       0.29612920      -0.69906392
H        6.30481402       6.58516247       3.81253743       0.74118657      -1.31305219       1.20764782
H        5.50202540       0.03337063       3.72543403      -1.13362748       0.98818663      -1.04164580
H       10.37040629       1.85291850       5.02328427      -0.16764928       0.94808073       0.18134747
H        3.81900601       1.09876798      10.16504118      -0.01502186       0.35845167       0.50825429
H        8.87028575       7.21828188       2.06032438       0.23281287       0.05156260      -0.30781522
H        4.20188961       7.07021579       0.64997738      -0.29461386      -0.84169269      -0.33144165
H        7.39024315       8.01874274       6.76537223      -0.59009633       0.05297820       0.95097934
H        9.44295975       9.35198828      11.21660268      -0.40193643       0.16376503      -0.25664106
H        1.24541347       5.12308636      12.08643846       0.39535695      -1.04012303      -0.45938740
H        1.55165309       4.64475128       7.42968835      -0.04004899      -0.42706213      -0.48044013
H       11.70095924      11.22106670       4.91358754       0.71931977       1.58008905      -0.91324281
H        6.72943975       0.86023294       9.29714994       1.47320843      -0.28828637      -0.13430986
H        5.95600928       2.88375214       8.94593107      -0.34593475       0.21055334      -0.07837206
H        2.85071930       4.79060027      10.15524971      -0.05239720       0.01049781       0.79971688
H        7.50536556       7.94718378      10.86287925       1.21418012       2.86566302       0.61222646
H        2.71287885       3.91289151       5.07686239       0.32964852      -0.31106005       0.16937616
H        7.38635246      11.51361068       6.75642987       0.15181178       0.22348368      -0.51639684
H        5.34851633       2.84691596       5.16991031       0.30385466      -0.06958429       0.57554256
H        2.65287626       9.62930662       3.15493452      -0.95286040       0.07322331       0.60214126
H        4.24802395       7.09141380      10.53245545      -0.21740538       0.14286638       0.34190573
H       11.70057698       1.86901208       6.72937800      -0.00690672      -0.72349170      -0.68880040
H        3.32705006       3.99549675       2.86161225       0.95480295       0.80221404      -0.80684305
H       11.70903290       9.06017048      11.80998982      -0.25376564      -0.62049401       0.16672921
H        3.52746753       2.08929326       8.35619725      -0.43263969      -1.53272976       0.50750073
H       11.70070077       2.86057811       9.63628500       1.54318441       1.25051200      -0.46976451
H        7.27566036       4.48301161      12.22924172       0.18195374      -0.62111572      -0.42729485
H        1.41178634       3.86628448      11.19907627      -2.33051170      -1.94548066      -1.68508688
H        0.44019605       5.56350107       7.30753569      -1.31687116       1.97168674       0.95796455
H       10.64041000       3.37093872       4.72127878      -0.08721362       0.94808050      -1.34937626
H        3.68472009       2.67222402      10.34187736      -0.06306084      -0.32520882       0.19454312
H        8.19255031       7.21844275       3.40408999      -0.18298471       0.72287912       0.51964410
H        3.41198316       7.67232741       1.72293504      -0.39906900      -0.12447969       0.80437695
H        7.03555411       6.89929518       7.74254964      -0.51557876      -0.76210385       0.09799908
H        9.14432333       9.82940375       9.81022781      -0.35764029       0.02124126       0.90615043
H        8.30893867      11.99300198       5.52685123       0.10565666       1.39290384      -0.91250540
H        5.86037076       1.47469816       5.43294573       0.08162479      -0.05538988       0.12051187
H       11.07633140      10.83539078       6.30767651       0.24409198      -0.16211372      -1.07291866
H        6.65950574      11.82546796       9.44216927      -0.62872998      -1.61449730       0.52986756
H        7.35425528       2.98986004       8.33754578      -0.34231753      -0.71455126       1.27945705
H        4.04756710       4.97505236       9.09002713       0.07828280      -0.33807554      -0.17286795
H        7.61401684       6.46980327      11.40190912       0.08766674       0.56952761      -0.64397316
H        3.41099424       5.18374332       4.81940324       0.75571291      -0.34064081       0.56470465
H        0.09669018       4.16975804       9.14471446      -0.51405641       0.03457025       0.00093183
H        8.86240873       4.41796040      11.75425039      -2.14352211       0.53702775       0.94964702
H        4.15533879       9.51476864       3.11817632      -0.71420532      -1.04742026       0.15494894
H        5.58239901       7.18383470      11.26983037       0.46826970      -0.15386537      -0.29216415
H        0.29135970       1.12891405       7.42064554       2.22799178       0.04561762       2.08084357
H        3.89130656       5.15416867       1.91354325      -0.58428047       1.84012209      -0.28666077
H       12.19452959      10.47406245      12.09083112       0.45864407      -1.34245295      -1.41600264
H        4.16174979       2.61059537       7.07174736       0.33286106      -0.01691219      -0.06374439
H        5.33429162       7.05045568       2.81910170      -0.21874056       0.21754108      -0.48146380
H        4.62727800       0.87970369       2.65304487      -0.34492272      -0.31294678      -1.75559391
H        4.58615340      11.14858393       9.86953244       0.09556113      -0.12614242       0.21721047
H       12.40842105      11.92522989      10.10206214       0.02213714       0.19962152       0.73367215
H       11.88129369       0.35502207       2.52051082      -0.39093997      -0.50929943       0.42483453
H        4.16979106      11.42603801       6.46411636      -0.39415046      -0.63704220      -0.03901259
H        0.28681605       3.74247972       4.54920963       0.31745282       0.09202554      -1.11529080
H       10.74036521       0.85013480       9.79128244       1.11292416      -0.85367563       0.77136396
O        2.73137389      12.01196853       5.21350315       1.36336774      -0.01289283      -0.57022395
O        5.32876832      10.23234204      10.92867119       0.01932924      -0.39760724      -2.38741842
O       10.20282315      11.82806149       0.55861732       0.48589373       0.55808901       1.06175589
O        3.71096740       7.23690992       5.50293800      -1.26244521       0.65634796      -0.07253933
O        2.37451877      11.29563889       1.10175297       0.79944252      -0.70336071       0.92767716
O        9.37204884       5.69027250       8.26755611       0.16808266       1.65060236       1.58390712
O        0.69822997       6.06254917       1.67194082       0.46627844       0.58973675       1.14313107
O        6.70919107       5.11826558       4.93532690       1.11428879       1.38175773       1.54508742
O       11.57763433       3.90572415       0.07174056       0.46578231       2.94764129       1.22163806
O        0.95324693       6.78763183       8.91691571       1.13406745      -0.02202205      -1.34630302
O        6.54405342      10.29751826       1.41085856      -0.10333733       1.49023231      -1.02142343
O        1.84642395      11.11540831       8.73733333      -1.43009582       0.90781712      -2.00462590
O       10.52206564       8.87100219       3.44707748       1.02406228      -0.93821139      -0.93491593
O       10.67496489       7.45616841       6.41763561       0.06751693       1.10351177       1.12494869
O       10.13942907       7.78199714       0.87957099       0.88661801       1.03979875       0.24938951
O        8.00833749       8.65262144       4.94836718       0.68135772       0.54872618       1.16079879
O        9.80541476       3.82765351      10.45019213       0.51240531       1.01820775      -0.99729681
O       10.49896358      11.38196216       8.13095408      -1.03716977       0.98270479      -1.14937431
O        6.47139128       2.25740733       0.04651169      -2.66904801      -1.00673323      -0.54201497
O        0.20431231       1.51043322       0.86684244      -2.63879691      -0.92361321      -0.78990845
O        3.64185376       1.55473065       1.11678617      -1.35300406       1.36118821      -1.38710569
O        6.46416735       3.63215347       2.70982357       0.44908266      -0.95004110       2.20491110
O        5.45733718       5.40282432       7.67485213       0.80250310      -0.61951733      -0.27354257
O        9.10962387       1.99215093       0.66336463      -0.29574624      -1.35533800      -1.75396648
O        0.34733326       6.55302439       4.54563108      -3.94606466       2.39867648      -1.40951492
O       10.30075770       4.24880059       2.49871049      -0.45333803       0.68773117       0.46868753
O        9.33170848       0.61688644       4.39479194      -0.14737749       0.26836695      -1.06318042
O        5.50002659      10.07909696       4.08870129       0.11013238       0.71745898      -2.08577653
O        4.40167960       8.57365019       8.36881895      -2.43679797       2.15586831       0.48268708
O        8.36233330       3.54826920       6.82478089      -0.19460220      -0.26708306       0.00676480
O       10.74353534       8.66839712       8.99589876       0.76110544       0.83543226      -0.66876848
O        1.38356302       9.12272737       6.39332826       0.19436139       0.84751384       2.76655753
O        6.01774058       7.39009875       3.41778456      -1.53739156       1.43447677      -0.98614144
O        4.94833603       0.85847517       3.53650558       1.32105370      -1.18542169       2.82313123
O        4.43863085      11.92407680       9.27699744      -1.14098239       1.53807984       1.27170638
O        0.01447797       0.24197785      10.75554029       0.64781231      -0.09633251      -1.55459847
O       11.42569042      12.05947149       3.03543841       0.68190538       0.75101913      -0.04960249
O        4.87680151      10.86083953       6.83842799       0.58863053       0.05588280      -0.24594930
O        0.81349887       3.60733111       3.72094113       0.87571868      -0.77583700       1.63351172
O        9.95121033       1.30063917       9.52902810      -1.67118917       0.72381356       0.04599718
O        1.87696226       4.43398324      11.74527911       1.89723798       2.61993012       2.06435497
O        0.77665585       4.82436421       6.85401881       1.51389823      -1.92036157      -0.72781649
O       10.59223902       2.74767351       5.42761053       0.08558940      -1.37587050       1.17083841
O        3.48061353       1.81840604      10.77174452       0.22963703      -0.34184569      -0.67035878
O        8.47135337       6.62500831       2.71472867       0.33660738      -1.08739897      -0.29118464
O        3.71480875       6.77482701       1.46234269       0.58577831       0.99778895      -0.69095846
O        7.04090749       7.85405069       7.69506418       0.96915006       0.91788914      -1.12567242
O        8.77419323       9.88723169      10.73200304       0.67843360      -0.32214534      -0.14758068
O        8.14017391      11.31666515       6.16628554      -0.26469575      -1.79878230       1.66141576
O        5.80038969       2.33124274       5.88480302      -0.42053970       0.25300248      -0.67787590
O       11.39322247      10.48881900       5.41159094      -0.89804785      -1.23119889       2.43957579
O        7.33029463       0.05066500       9.35264315      -0.13554463       1.49428561      -0.30255786
O        6.86655625       2.64425360       9.17162659       0.32296264       0.89239687      -1.30786745
O        3.15314780       5.23628386       9.35533464       0.03087724       0.88488209      -0.65921536
O        7.27446424       7.07766397      10.67076025      -0.74670148      -3.63952464       0.13136573
O        3.62964983       4.26304287       5.11672030      -1.17173548       0.57262185      -0.60218281
O        0.16947441       3.23005732       9.36239924      -0.66372542      -1.44270431       0.50708199
O        8.14905939       4.86584999      12.38298843       1.50394044       0.18284631      -0.73350203
O        3.29916207       8.96801550       2.91040940       1.52092603       1.05472406       0.03351298
O        4.65673783       7.49945482      11.32584826      -0.21487450      -0.10351361      -0.07438013
O       12.09044304       0.95110953       6.76998243      -1.88170168       0.63277890      -1.25145650
O        3.98415244       4.24354589       2.14509113      -0.79182330      -2.79462731       1.22311248
O       12.31973652       9.70084658      11.43206479      -0.15591914       1.92828609       1.32702409
O        3.71676002       2.88240243       7.89319824       0.15533767       1.18967150      -0.50633515
192
Lattice="12.429 0.0 0.0 0.0 12.429 0.0 0.0 0.0 12.429" Properties=species:S:1:pos:R:3:forces:R:3 energy=-939.6589590342725 pbc="T T T"
H        5.45534855       9.95652700      11.71788288      -0.73301117       0.60093849      -1.16167236
H        3.92558278       3.32090348      11.90152835       0.25004068       0.10968997      -0.63329842
H        0.33690689       0.51171002       3.45582242       0.82822316      -2.07577798      -0.09757010
H       10.11084087       8.09809489       0.52232155      -0.13222438      -0.10901130       0.17127138
H       12.27307870       9.09564480       5.79111197      -0.65913629      -0.42239166      -0.11866376
H        7.82969958       5.20875272       5.77766214      -0.20715761       0.42650116       0.13797239
H        0.63161392      11.42220786      10.19356990       0.17484931      -0.31493068      -0.23023458
H        9.35746167       2.53147518       2.55020354      -0.21888181       0.90833652      -0.61280122
H        3.34547479       5.06620039       4.74650414       1.22266977       0.56415775       0.58340003
H        0.90651194      10.62433173       2.90628550      -0.54322950       0.20599921      -0.22486045
H        0.43759658       8.64330056       9.00669005       0.62152204       0.86792968       0.05889521
H        9.09075148       9.98750344       1.80047454      -0.42329433      -0.96956094       0.10250847
H        6.95084060       4.83887413      12.38420569       1.27354183       0.80620492       0.00984066
H        5.81323578       4.67465685       2.09077371       0.01789989      -0.72635427      -0.95732546
H        1.30929655       5.88898306       0.62601698      -2.17566510      -1.64918121       0.89570223
H        3.46160693      10.71053214       5.87938098      -0.31629169      -0.29667325       0.66776788
H        7.88157267       1.76369935      10.48445425       2.10642179      -0.21409784      -1.68482129
H        7.87885983       3.55769725       7.89782719       0.21306255      -0.15833544       0.14614537
H        3.16976756       0.46089502       0.50414530      -0.28437104      -0.25141255      -0.25052868
H        8.81327404       1.42075337       7.80817720       0.08666701       0.00911973      -0.18737385
H        1.19194790       8.00392942       4.23205343      -0.53142018      -0.60251971       0.28398257
H        6.40156086       0.83991145       0.05688722       0.36032145       0.10195400      -0.27210196
H        4.56841431       6.67149137       2.30402240       0.65839446      -0.54588617       0.18068827
H        0.40635477       0.76555570       5.54809025      -0.24488951      -0.31218434       0.41753228
H        9.44537814       7.97495775       7.48241550      -0.19954296       0.14906971       0.72965286
H        2.50559781       0.19685056       3.33574075       0.26880986       0.57035719      -0.58342113
H        0.78178754       4.48921858      10.73176496       0.28899216      -0.47752305      -0.14976940
H        9.18839255      11.51309032      10.45295267       0.06726840       0.44050034       0.34659104
H        1.90326388       8.40722324      11.97775691      -0.30033981      -0.46591543       0.17099458
H       12.34296338       1.46848086       7.86055906      -0.43903555       0.06833773       0.07439492
H        6.57111917       2.22202958       4.93176059      -0.02081885      -0.51218428      -0.45660986
H        7.63547038      10.42293982       8.25230087      -0.41173996       0.61680644      -1.21646647
H        4.37542491      11.11339936      11.80208602       0.27830418      -0.72465589      -0.98860580
H        4.59250984       3.13895522      10.36023050      -0.08575610      -0.31328967       0.20434698
H       11.33360756       1.14196838       3.49948863       0.43116194      -0.31113179      -0.04756856
H       11.01641929       6.84109621       0.75988486      -0.36567306       0.60687722      -0.96248510
H        0.85925403      10.01590128       6.21471591       0.50865423       0.64250294       0.41194506
H        9.03986271       4.57419817       5.15199741      -0.28084793       0.82614509      -0.77349816
H       12.27011372      11.96988857      11.35105398      -0.07684293       0.32135379      -0.13650755
H        8.49637791       1.71508749       3.54733759      -0.53642294       0.14694171       0.40373475
H        1.77338294       4.96942195       5.07412040       1.05179607       0.10580765      -0.70894466
H        0.22399921      10.29044956       1.56605669      -0.13040032      -0.17868609       0.19703413
H        1.72372393       9.02700634       9.87912714      -0.64985403       0.05100923      -0.82059926
H        8.56730668       8.58815951       2.39464470      -0.23765851      -0.12709341       0.90586066
H        5.65978100       4.15566347      12.05935752       0.85313452      -0.60530002       0.90872139
H        6.47296268       5.62325148       3.02397057      -0.01356874      -0.06575294       0.13704745
H        2.59768761       6.54426159       0.76407435       0.62626593       0.40056699       0.03699922
H        3.47431643       9.64510668       4.70771081      -0.09135904      -0.62220192       0.15317216
H        6.92374930       2.62049010      11.19889017      -0.43927686       1.72948863       0.79515039
H        7.09232350       4.85150684       8.21490726      -0.10768854       0.94430386       1.00723136
H        2.39577371      11.58359942      12.37567274      -0.39879904       0.56514476      -0.19458761
H        9.77038182       2.03998983       8.87603507      -0.12608603       0.04665396      -0.35048099
H        0.02768415       8.71286648       3.52809443      -0.25711856       0.18026038      -0.19738703
H        6.26425843      11.81178981       0.69597122      -0.46291112       2.27643251       0.43459015
H        4.38614189       8.19165835       1.81117954      -0.10085284      -0.61628410       0.12419583
H        1.54895391       1.42567042       6.35233642      -1.67104922      -1.66804881       0.76826282
H        8.50256149       7.48245961       8.64949490       1.04951289       1.10017546      -0.32300240
H        2.63555875      11.46464776       4.24945697      -0.37668047      -0.13726830      -0.07488999
H        1.03138708       3.14094174      11.48345857      -0.15337787       1.17772257      -0.09916576
H        9.77274156      10.26461996       9.87579995       1.65254667      -0.97865896      -0.23479204
H        3.06374183       9.33405004      11.51920904      -1.20899890       0.15374885      -0.20916747
H       12.12794926       1.26367541       9.33336840       0.87833608      -2.08551822       2.54544779
H        6.69435400       0.69557288       4.22246005      -0.07810171       0.68816201       0.10580989
H        6.41221290      11.23015815       7.69339239       0.20596208      -0.17648249       0.21189433
H        4.94778517      11.25355025       9.72450406      -0.30675607      -0.02275079      -0.63637364
H        5.64350742       2.65109127       8.38981999      -1.08460312      -1.13535179       0.81431610
H       10.35549022      11.66501024       2.77484168       0.56592977      -0.82690509       0.31726876
H        7.60153897       8.63773403      12.34594352      -0.11191886       0.25980708       0.29475993
H        0.77170244       3.33157116       8.75399028      -0.13958930      -0.26939833      -0.10955333
H        3.85426291       6.53037933       6.75571644      -0.08332356       0.04339830      -0.44596824
H        9.34162892       9.77698192       4.34920086       0.75267896       1.07462522      -0.18143659
H        5.51410129       4.08877128       4.41874573       0.03700347       0.24275148      -0.47064795
H        8.44642174       6.31893535       3.40988927      -1.38021689       0.26335475      -0.64315584
H       12.32693139       6.08414099       6.17645609      -0.03017960       0.04026128      -0.09677426
H       10.42712225       0.99126083      11.70907681       0.04551889       2.35440262       0.11216847
H        8.07800255       0.62759440       5.74362677       0.47885383       0.13746534       0.61657795
H       10.25238359      11.91904680       5.43235970      -0.74873320       0.62742387      -0.00932462
H        6.31355292       8.04616415      10.41594824       0.22372351      -1.84644956      -1.14950308
H       10.94717816       7.37385661       4.80829030      -0.33494518      -0.22812570       0.41625245
H       12.17968596       5.10749289       2.22952737       0.21317757       0.06326163      -0.14763591
H        6.19041714       7.91868282       8.21054037       0.04244482      -0.02940670      -0.67246926
H       10.52261063       8.57939794       9.33589846      -0.37031612      -0.42516176      -0.05685892
H        2.00746426      10.24122132       7.99027755       0.17964054       0.81649830      -0.76676347
H        7.08521209      10.79523627       3.88290618       1.04792234      -1.02140582       0.66160205
H        4.17772116      10.51088497       1.44894519       1.57240176      -0.88485019       0.83717243
H        9.18826396       6.45690004      11.63664449      -1.11918247      -0.10407271      -0.33503955
H        5.26691179       1.07443586       2.13926667       0.41573192       0.01292232       0.06722603
H        3.49197530       7.36360512       4.94905550      -0.82291259       0.72046566      -0.55700950
H        3.15121394       6.40106628       8.48871308      -0.56823960      -0.05061707       0.33742996
H        9.78036379       3.87275667       0.82542520      -0.27485537      -0.16541621      -0.28407674
H       10.82658189       2.93311231       4.25504260      -0.49493828       0.64167143       0.78470116
H        0.64116018       2.98627272       2.55366739       0.04888742       0.12429098      -0.39789841
H       11.45380423       3.46687609      11.67070350      -1.88549764       0.14986797      -0.16647378
H        3.79349784       2.53942938       1.46540124      -0.52943058       0.28543342      -0.07046122
H        3.79967145       5.16998338      10.59571532       0.36737569       0.01336301       0.08468539
H        3.61403551       2.56006208       7.63316361       0.87742381      -0.33686559       0.28440308
H        9.69546813       6.51247241       5.39134890      -0.05026331      -0.18198966      -0.27436358
H       12.05841922       6.55766832       2.69317932       0.64757584       1.10073133       1.12745419
H        8.29481773       5.82551641       2.05933892       0.84966491      -1.70988426      -2.09860445
H        1.14234486       5.57320792       6.91294674       0.14820457       0.14707159       0.65261419
H       10.23635686      12.23991800       0.25305974      -0.24936603      -0.11941183       0.98962174
H        8.35648639      12.10462438       6.98442204      -0.40323966      -0.41655424      -0.30360586
H       11.40086245      11.03257382       5.38867638       1.19523526      -0.99011115       0.46722122
H        5.25626977       6.89787662      10.03735687       0.80241782       0.00828729      -0.16145672
H        5.07229223       2.06751530       3.39055556       0.26640166      -0.05363752      -0.16879785
H        3.10040448       7.68400261       3.48039462       0.77176356      -0.67549743      -2.49016326
H        6.25017907       8.97179051       7.03855712       0.26637922       1.29404254      -0.13555080
H       11.11953914       8.58841830      10.78021260      -0.05839320      -0.27325029       0.11367702
H        1.77455132      11.64533472       7.27404037      -1.39363102       1.52243877      -0.27026990
H        5.62516856      11.14883334       4.35341024       0.29572646      -0.26376204      -0.04346453
H        5.42292625      10.25135349       2.48732881      -0.38349114       0.22032033      -0.51761801
H        7.70149525       6.37709343      10.94924930      -1.44299945       1.78271232      -1.09938874
H        2.97236928       6.40854207      10.97308241       0.17736424      -0.12486000      -0.23874621
H        3.16347736       3.45084754       6.38747228       0.08313639      -0.86443577       0.53160706
H        2.29733096       7.60156294       8.09560722      -0.41326495       0.49300619       0.11713947
H       10.16253170       4.68809004       2.02133402       0.09797598       0.39534883       0.39088216
H       11.26155296       3.91064008       5.43157686      -0.79602043      -0.44257343      -0.61215379
H        1.55775252       4.06242517       3.07267349       0.59744244       0.46677599       0.23349205
H        9.91420235       3.85535624      11.28125844      -0.54723740       1.12673711      -0.93402736
H        2.45883577       3.45900314       1.16939237       0.94620353      -1.04088267      -0.34268633
H        8.83269978       8.52219428       4.86992102      -0.38299636      -0.09852871       0.08446799
H        6.01300858       4.09902370       5.84328043       0.64948351       0.77546844       1.26118303
H        3.99770858      11.53824133       8.43982357       0.11907663      -0.17864228       0.20575603
H        5.09992511       1.28428181       9.07568867       0.43868382      -0.90102384      -0.09356247
H        9.37452724       0.12369887       2.21968693      -0.80683247       0.73680505      -0.16027132
H        7.92215352       9.71650105      11.27033496      -0.76722174      -0.40962359      -0.07295621
H        2.18676258       3.93878577       8.62179691       0.36811328      -0.27749235      -0.48485153
H        5.22423709       7.13723010       6.41614458      -0.22552922      -0.45145127      -0.39677646
O        4.73185232      10.40700294      11.15071543       0.45441220       0.00326657       2.22449062
O        4.50135704       3.72597810      11.14409913      -0.88941603       0.05479663      -0.14915200
O       12.29996957       1.31722954       3.52504069      -1.40070720       2.68447567      -0.00000070
O       10.63305239       7.42567091       0.02457917       0.27200401      -0.42274103       0.64784357
O       12.34928621       9.86608491       6.38178683       0.02187405      -0.43884025      -0.31303850
O        8.44526374       5.39128840       5.04534015       0.67858459      -1.52130679       0.90030823
O        0.66701080      12.13500443      10.84508580      -0.18292254       0.03592567       0.28087690
O        9.29417572       1.67978250       2.98976998       1.09373909      -0.78599496      -0.04756101
O        2.51369144       4.78484110       4.40145686      -2.40488814      -0.68092364       0.13848422
O        0.06357455      10.25234913       2.52735122       0.68379298       0.06343807      -0.16217602
O        1.35792299       9.02642128       8.92237126       0.25626135      -0.66127181       0.74432708
O        8.82055802       9.04083202       1.59479613       0.76120071       1.06630993      -1.55997128
O        6.45693641       4.09373271       0.28372795      -1.44194903      -0.13460254      -0.41579786
O        5.65615216       5.05039987       2.96293486      -0.43528845       0.57767696       0.65407493
O        1.89691705       6.37630873       0.10550884       1.79584733       1.73979101      -0.81657752
O        3.79703819      10.52370541       4.98816043       0.61982011       0.68167912      -0.57880373
O        7.12209304       1.72121049      11.01414642      -1.76990093      -1.62314132       0.95201554
O        7.21470857       4.19387716       7.54777705      -0.06302429      -0.89297878      -0.91995184
O        3.20647919      11.92435800       0.35771681       0.33407617      -0.24313874       0.39721047
O        8.82572332       1.99671720       8.61569265       0.14226558       0.45179100       0.49339292
O        0.18071993       7.96693453       4.14888562       0.64480863       0.20827137      -0.28357596
O        6.04931422       0.37770920       0.83987884       0.41725895      -2.47005411      -0.25760573
O        3.94132949       7.29365798       1.91875560      -0.47971320       0.97002588      -0.46839048
O        0.76584296       0.71873955       6.46559350       2.11705288       2.22016986      -0.89232179
O        9.19878981       8.17412950       8.42543144      -0.97454838      -1.40380718      -0.82784478
O        1.93515240      11.95080248       3.71394370       0.45799194      -0.37796384       0.34078111
O        0.63543265       4.04678092      11.59650346      -0.26624378      -1.18555992       0.56708298
O        8.94023884      10.66735195      10.05657169      -2.08991672       0.69531717       0.14604858
O        2.05163270       9.23298161      11.49017184       1.73835748       0.26797770       0.25131293
O       11.89626944       1.84795225       8.66604422      -0.52974175       1.91282469      -2.54001481
O        7.16148125       1.53280358       4.49393510      -0.27252441      -0.45588318       0.32708529
O        7.24388492      10.78567985       7.39005130       0.09264545      -0.49736678       1.43855551
O        8.52020062       9.28871801       4.34564226      -0.33403951      -0.66157161       0.34584519
O        5.50926870       3.56541931       5.25264637      -0.80673748      -1.14151052      -0.77450613
O        4.89236255      11.67828029       8.81566018       0.29538748       0.36424918       0.08454863
O        4.84735901       2.17374539       8.80653469       0.93830025       2.10478279      -0.78924192
O        9.71256499      11.65417182       2.05146057       0.28207619      -0.14492007      -0.28263751
O        7.16796628       9.15075070      11.63720272       0.68211486       0.24807601      -0.38380828
O        1.34649320       4.05035059       9.06505793      -0.49135383       0.67798278       0.48418571
O        4.53862819       6.48503229       6.03725175       0.17678360       0.37933954       0.02843686
O       10.29615928       7.27491253       5.54331826       0.43182987       0.51733155       0.21589614
O       11.60646605       5.91009366       2.17059250      -0.43077498      -1.04760819      -0.77685938
O        7.83412139       6.41755893       2.61335851       0.57764169       1.76124986       2.42245495
O        0.46873695       5.30195053       6.27100170      -0.32861923      -0.18190330      -0.48394782
O       10.31959706       0.06651697      11.76060466       0.19557759      -2.09532223      -0.98026833
O        8.73841439       0.41323116       6.46374284       0.21943996       0.21410623      -0.43377424
O       10.85988397      11.53583037       4.78178852      -0.82440348       0.46819330      -0.49771060
O        6.20249798       7.18669941       9.80775665      -0.81016155       1.87944590       1.59136582
O        4.62123489       1.50333470       2.74961325      -1.03671636       0.13321595       0.03403180
O        2.85602384       7.93386604       4.34761645       0.28422547       0.26207972       3.24821205
O        6.28738003       8.03939265       7.21615491      -0.02013042      -1.29217741       0.73090553
O       11.16537384       9.03505599       9.91762177       0.79028994       0.32477499       0.16893381
O        2.39725743      10.94638668       7.34851459       1.28577749      -2.18377015       1.09067178
O        6.32633211      11.32729862       3.68574567      -1.41019708       1.00451375      -0.21482066
O        4.93886551       9.87496053       1.70464121      -1.24428028       0.79566627      -0.48298678
O        8.40059957       5.90579288      11.33703376       2.68675216      -1.67188587       1.33597434
O        3.68567477       6.12916274      10.35587939      -0.34439803       0.23580712      -0.12129217
O        2.87766220       2.76850679       7.04645666      -1.03093462       0.88555439      -1.30817329
O        2.56889303       6.72734078       7.76274759       0.44691403      -0.56590269       0.20639328
O        9.38888875       4.24140398       1.65141800       0.11335082      -0.38500927       0.11694717
O       10.47491205       3.59831891       4.89937747       1.43454125      -0.05023627       0.25618095
O        1.06606004       3.83170118       2.25836680      -0.62961792      -0.60895665       0.36489408
O       10.43325398       3.20367480      11.72505882       2.37881556      -1.08034448       0.87055062
O        3.18150731       2.87642093       0.74612452      -0.52069750       0.20120397       0.58279115
192
Lattice="12.429 0.0 0.0 0.0 12.429 0.0 0.0 0.0 12.429" Properties=species:S:1:pos:R:3:forces:R:3 energy=-938.4225364283574 pbc="T T T"
H        6.88071927      10.43737003       8.58815829       0.38806418       0.01447794       0.05953114
H        6.72231874       2.45375760       0.84038148      -0.15669032      -1.24010300      -1.38343014
H        0.10013413       0.74348977       1.88869054       0.94325280      -0.49404398       0.30869947
H       12.17006470       8.19339882       3.17116373      -0.18752600       0.36048073      -1.87883325
H        2.61642429      11.98152039       5.04490081      -0.36266859       0.27701958      -0.04777639
H        9.93946836       6.18350626       5.99377999      -1.20637010       0.78798566       1.41572955
H       11.22065235       9.18413623       0.17082116      -0.46109039       0.36433156      -0.22148698
H       11.01674918       2.79410132       2.05498371      -0.21829472       0.59217549      -1.27534443
H        2.75920919       5.07762982       3.88979094       0.20223593      -0.48429533       0.01332953
H        2.34790935      10.43142254       2.57784536       0.35126589       0.61116063      -0.14222600
H        2.78552230       7.58784902       6.78742840      -0.09781350      -0.06691374       1.05259024
H        9.40947211       8.80432749       4.25753526       0.25740421       0.08176548       0.34671685
H        8.15040688       5.01825020      11.45508237      -0.16827129       0.55446703      -0.40979382
H        7.62250999       4.60992412       1.09540853      -1.01683151      -0.99227546       0.59446282
H        2.40656709       9.03347835      11.59271620       0.19253805       0.21798396      -0.32894870
H        7.01811030       6.30427771       6.79736402       0.96720842       0.68178930       0.12731499
H        9.55582735       2.15163362      10.43266730       0.48355060      -0.10951061      -0.16478132
H        8.73331464       2.95303127       8.26324419       1.25087291       0.52017605      -1.24998794
H        1.98140589       0.70316418      11.53489628       0.45560337      -1.26750838      -0.70731432
H       10.01988283       2.18532858       6.85517877       0.06923821      -0.44328027      -0.51951385
H        1.45618131       9.52442059       6.07819573       0.22380794      -0.07429517       0.17497242
H        8.39902026      11.45498249       3.50079578       0.04278542      -0.20403236      -0.08799981
H        5.63697445       5.63227987       1.50498814       0.86399613      -0.10988325      -0.18133725
H        3.73964457       3.00072659       4.40854774      -1.26336677       0.64168397      -0.46663624
H       12.30642952      10.85979718       7.46739568      -0.19876514       0.10627171       0.12984824
H        3.07801930      11.59653188       0.42924726      -0.08583142      -0.08724833       0.88214518
H        3.00213215       5.53261911      12.17455499      -0.11183350      -0.79671709      -0.74162406
H        6.43624819      10.49092222       0.59636512       0.24420816       1.28252207       0.13934474
H        1.16174201      10.91523912      10.88988615       0.48997761       0.74067681       0.09428475
H        1.21199748       1.37015308       8.28703008      -0.82371886       0.07861225       0.27587259
H        8.30048242      12.42272055       6.82608781       0.27131187       0.81518382       0.33593666
H        8.77411120      11.87635325       9.21042295      -0.47978700       0.01732384      -0.61642177
H        5.39079892      10.55349754       8.61024335      -1.24166109       0.99389960       0.67270024
H        6.33937573       0.96478494       0.22556610       0.27370376       0.36443323       0.43436923
H        1.36186516      12.22177984       2.39785639      -1.40133351       2.22581004      -1.25875379
H        0.00359331       7.81326913       1.66682974      -0.09486600      -0.21927930       0.29844817
H        3.95818004      11.33904072       4.71800492       0.65987317      -0.84668649      -0.71210016
H        9.69341126       5.19027997       4.76770067       0.45572083       0.59362505       1.01835150
H       10.32308160      10.20261483      11.80246310      -0.64322677       1.40102539       0.57460317
H       11.64427059       2.70809100       3.42670520      -0.75158703      -0.37433304      -0.10815957
H        1.51436350       4.25526103       4.32280674       0.95706629      -0.34667154      -0.41139253
H        1.02180733       9.80333671       2.51678141      -1.14647124      -0.43230002      -0.09599065
H        3.28065256       7.33748670       5.40588077       0.63807406      -0.58001074      -1.19325361
H        9.70102621       8.51167966       2.80274431       0.87913749      -0.42475274      -0.70120450
H        8.98287053       5.73433960       0.21529910      -0.07449793      -0.28046913      -0.56256066
H        7.16482730       4.31100133       2.55685271       0.47692502      -0.10688534       0.75766938
H        3.20021345       7.89964627      12.24809500       0.07179415       0.01656925      -0.15330394
H        6.52228001       4.91825501       6.43615634      -0.31829648       0.84187509      -0.28110166
H        9.28584159       2.11626615      11.88468066       0.97941139      -0.55572898      -0.37902918
H        7.76308508       3.70689244       9.29389147       0.92586490      -1.09431559      -0.46988053
H        3.08794595      12.29551217      10.63766820       0.28595454       0.42818002      -0.14800511
H       11.29292167       2.59320937       7.60383449      -0.14692105      -0.03022558       0.27730431
H        1.31800465      10.37731761       4.84431113      -0.98588721       0.05769034       0.86534582
H        6.93092011      12.03315481       3.47256204      -0.01943815      -0.44083985       0.35212881
H        5.41056992       7.26048367       1.37344765       1.04786260       0.66855325      -0.57567587
H        4.18068732       1.47090644       4.58437053      -0.06195235       0.90808538       0.32877937
H       12.31535543      10.70539177       8.98612848      -0.29596853       0.12285148       0.18380808
H        3.67489981      10.25236510       0.57313927      -0.08445847       0.21050633       0.91304381
H        3.59287440       6.11407779       1.09432036       0.25900100       0.05522675      -0.49332548
H        7.72468635      11.26864757       0.17009191      -0.23301423       0.28452886      -0.04304385
H       12.42454720       9.85571927      11.01382420       0.46338329       0.36994325      -0.62567062
H       12.22023962       0.66468385       8.40653890       0.33956199       0.07030857       0.11765195
H        7.98713863      12.26876356       5.39930676      -0.46811236       0.13178089      -1.44330703
H        9.87883819      11.17690603       8.40418662      -0.07195223      -0.10694826      -0.38416633
H        5.49178794       0.25482513       9.48804323       0.46580773       0.28232099       0.05311838
H        7.60435717       1.43920463       9.38629210      -0.24016103      -0.37688346       0.49913083
H       10.59780098      11.71085021       3.52596513       0.57714423      -0.54478055       1.90251059
H        7.23803447       8.88644769       1.89479997      -1.45394514       0.08274605       0.16753399
H        1.68238443       3.35301214      11.28518355       0.03022474       1.09776614      -0.94018490
H        5.53584856       6.65111113       7.96446632      -0.25338678       0.90497918       0.62225647
H       11.58948636       9.08515626       5.94423734       0.48620577       0.55031592      -0.71035141
H        7.36060647       1.93152216       6.09953290      -0.73996143       0.63656570       0.15393384
H       10.77562485       6.13145935       2.42310836      -1.36414614       0.28375866      -0.40223379
H        2.59624177       5.38132812       8.41288448      -0.44475882       0.15989618      -0.32190323
H       10.27051802      12.42251824      11.86296863       0.26195298       1.10943465      -0.76482224
H        9.93885648      12.42585473       5.81430470       0.95148785       0.20987378      -0.42925088
H        1.32248959       1.81610169       5.13338773       0.49579881       2.80577097       0.24309000
H        6.62259495       6.10126160       9.88233436       0.31790786      -2.02843830       0.40303593
H        1.01708895       7.09390964       5.06976175       0.70708419       0.30329344       0.62503948
H        1.38306888       5.69319514       1.32665026      -0.46592327       0.11652456      -0.12296232
H        8.07347032       8.16962863       6.58327056      -1.18792418       1.43742633      -1.21971855
H        9.41917736       8.36308376      10.85295111       0.76416367       0.51695730       0.66569100
H        3.54213769       1.84060653       7.52199850      -1.00728653      -0.89261389       0.35478300
H        7.10787112       9.83237186       5.05000643      -0.22935436      -1.09438042       0.27337338
H        5.08337715       9.35616226       4.60748861      -0.13183543      -0.04167407      -0.04488169
H        6.34252555       9.53949933      11.57317401      -0.46720255      -0.72880339      -0.67863323
H        9.30215627       3.43762928       3.78458059      -0.98174228       0.83555862      -0.15048324
H        4.67530183       5.96594614       4.76662126      -0.92979271       0.49213552      -0.86924903
H        3.52373853       7.55070337       8.92501486       0.13265069      -0.62389583      -0.39481654
H       10.65814335       4.10995310      12.39479239      -0.60319234      -0.01750510      -0.25423514
H       11.92071720       4.70474840       5.67498794      -0.62160139      -0.23949852      -0.46826540
H        2.69792565       1.99132229       1.66317852       1.96311777       0.66153453      -0.68707680
H        0.17635702       1.74763077      10.52396646       0.30456992       0.81503009       1.00322798
H        4.88257694      12.19754500       2.26911274       1.25123503       0.41148327       1.02685868
H        5.46961231       2.55810757      11.27445289      -0.56575860       0.39740230       0.14350132
H        5.53973888       2.86908996       7.30974685      -0.85662834       0.17640773       0.56696337
H       12.02446217       6.50608899       4.87102611      -1.63992989      -0.52067816       0.87944589
H        0.66585080       5.80748157       2.68234632      -0.06366378      -0.10917276       0.35452244
H        9.39571948       6.52624485       3.08819611       0.62787023      -0.35454511      -1.20513436
H        2.93596604       4.11934024       7.66724541       0.94880822      -0.87407839      -0.32608222
H       10.08810725      11.81126268       0.81143644      -0.11822433       0.00309446       0.29532883
H       11.14373310      11.54858818       6.11978132       0.47978160      -1.26720321       0.73224736
H        0.22766313       0.80676479       5.25121079      -2.29011285      -0.32013733       0.46777802
H        6.20384132       4.59455270      10.29881932      -1.29449685      -0.44260061       0.38523860
H        8.04741199       3.48882847       4.70547725       0.07940674       0.52723387       0.05008904
H        4.38701121       6.59601425       3.37916724       0.72989324       0.14362276      -1.15827956
H        8.64228449       8.03891884       8.02470904      -0.06252983      -0.45982749      -0.55315278
H        8.00738378       7.92135105      10.50944757      -1.58120895       0.23035926       0.66313822
H        2.84907434       0.53388234       6.90080079       0.01252224       0.07633461      -0.22510348
H        6.45685942       9.69114805       6.38258394      -0.48613523       0.02924411       1.11399752
H        3.74443379       9.20709897       3.85776974      -1.10144183      -0.72332183       0.23386763
H        5.27571952       8.43935565      11.11262298       0.28167819       0.52095917       0.18004466
H        4.09794534       3.38283142      10.81114942      -0.66436261      -0.21799288       0.63999221
H        4.99167724       2.97804313       8.81801296      -0.14453684       0.04390458      -0.19993371
H        2.03265035       7.78099170       8.83693779      -0.65774955       0.08977553       0.22163604
H       11.97206338       4.34801232       0.79258666      -1.29548160      -1.22689053      -0.21160731
H        0.74411639       4.39574043       6.39753036       0.30795605      -0.56929011      -0.32133115
H        3.67538116       3.18724936       1.96620363      -0.13121409      -1.12887532      -0.76265407
H       12.36331389       2.56135705      11.96027125      -0.70516504      -0.15441051      -0.32728008
H        5.21518556       1.15276449       2.85054957       0.12177908       0.16456215      -0.01996981
H       10.46810187       8.49499325       6.70741335      -0.64522819       0.26883678      -0.85459786
H        6.15559340       2.69396934       5.31991486       0.41231217      -0.11975124       1.46787203
H        4.13652083       0.09124677       8.68048695      -0.52601965       0.77761644      -0.87772242
H        7.61483219       0.59156302      10.73521774      -0.72945485       0.19671384      -1.23556677
H       10.23616388       0.67456817       2.92613733       0.27646032       0.64991002       0.52683635
H        5.83627296       9.07830676       2.59221245      -0.36331972       0.48186372       0.71579281
H        1.85651868       4.22325730       9.95603626      -0.05060922      -0.19755323       0.14334448
H        5.80443406       8.08460893       8.68841977      -0.08968609      -0.17564975      -0.26841899
O        6.08016599      10.02214392       8.23457468       1.04646170      -0.96468360      -0.79107535
O        6.75323649       1.83242310       0.02286531      -0.08124984       0.91625717       0.93559120
O        1.08593771       0.66769870       1.87558775       0.42205772      -1.57082775       0.87170603
O       12.03337002       8.53037973       2.19927406       0.42819696      -0.36957858       1.48567931
O        3.55137360      11.97938809       5.29069076      -0.13317949       0.92781923       0.67488013
O       10.35774778       5.78788445       5.25549132       0.48787744      -1.38128068      -2.14136818
O       10.96089103       9.49750162      11.70627269       1.01430182      -2.11159270       0.12556684
O       10.79911404       2.51008068       2.94996251       0.64544974       0.04495842       1.66802413
O        2.39087043       4.16185701       3.82036772      -1.10224662       0.43074561       0.38863082
O        1.48983317      10.45380218       3.05490213       0.92912513       0.06895170       0.25139107
O        2.70238855       7.92295898       5.88692828      -0.98882073       0.92385189       0.14108425
O        9.08634252       8.97480703       3.36091880      -1.02581967       0.46785049       0.15941346
O        8.81835736       4.89463558      12.15929707       0.39557213       0.04815705       1.09460461
O        6.85334348       4.21151551       1.65375823       0.55051686       0.77561978      -1.49911449
O        3.32570575       8.79052168      11.82784423      -0.32109333      -0.30083794       0.14978424
O        6.33526308       5.88560239       6.26972014      -0.54917311      -1.70337641       0.04324399
O        9.99954624       1.81843511      11.24744224      -1.63408210       0.81415629       0.20906115
O        8.26380801       2.84759560       9.07065189      -2.13082451       1.15070952       2.10148842
O        2.33157634      12.22122318      11.24590098      -0.64294237       0.96799412       1.12745588
O       10.34002871       2.81292552       7.50659870       0.37956462       0.27200113      -0.27787849
O        0.93757095      10.29208062       5.78432202       0.46803169      -0.27026847      -0.90716570
O        7.57304048      11.47805405       4.01679206      -0.07151699       0.06504851      -0.29145225
O        5.12413262       6.42507528       1.73791738      -1.33213733      -0.57667460       1.11261218
O        4.44452486       2.42726146       4.69656690       1.29625398      -1.64063510       0.22567721
O       11.72910523      11.03110805       8.24503042       0.84417528      -0.26057543      -0.10376031
O        3.42556454      11.01359360       1.17831246       0.33136090      -0.07359944      -1.65074971
O        2.90401427       6.23196410       0.39301601      -0.63447893       0.63678921       0.93186250
O        6.74661564      11.34621030       0.15643653      -0.02023842      -1.37836767       0.19284334
O        0.78527124      10.13766172      10.45004829      -0.70001568      -1.15181218       0.07772312
O        0.27058980       1.48580016       8.65023109       0.30773749      -0.17521164      -0.40203245
O        8.31801438       0.55024181       5.99413840       0.09323269      -0.65907733       1.68601984
O        8.92527513      11.41779465       8.35049767       0.38340168      -0.08311603       0.50064733
O       10.63829672       8.93613453       5.83690451       0.27478535      -0.48861677       1.27395979
O        6.77147814       2.76811741       6.13976733       0.12383010      -0.53934949      -1.74035357
O        4.63102361      12.23586053       9.44470784      -0.16044448      -1.19605396       1.00407135
O        7.26294103       0.57947320       9.79540963       0.63381832       0.00615514       1.05531822
O       10.41598005      12.17971534       2.73750722      -0.73864361      -0.22874814      -2.66216020
O        6.25133895       8.99670819       1.72659586       1.90002762      -0.43591234      -0.91585658
O        2.00802356       4.25593692      10.92208956       0.38740520      -0.81499991       0.62743083
O        5.35083121       7.21257764       8.77328293       0.52321962      -0.50823636      -0.25859532
O        0.35855203       6.82684514       4.42647839       1.04879925       0.71950395      -1.84316383
O        0.47497312       5.66582232       1.74006591       0.48741452       0.15577727      -0.43139437
O        9.81767463       6.32800997       2.20007296       0.57670750       0.00370016       1.32913252
O        2.18021508       4.59389539       7.99680973      -0.75167563       0.49264074       0.37065345
O        9.72880383      11.79254000      12.33077882      -0.53260583      -1.18979764       0.80996423
O       10.89611776      12.25590135       5.55352265      -1.16452809       1.17289555      -0.61817691
O        1.13514848       0.91845596       5.07802643       1.63015510      -2.46717230      -0.67644892
O        6.96258025       5.16693723      10.16100937       0.65812513       2.26901241      -0.75210353
O        8.52634207       4.04882274       4.04802988       1.12452580      -1.33570711       0.02672202
O        3.93290443       6.31143644       4.17337317       0.91331520      -0.68088813       2.09683365
O        8.61059007       7.61979478       7.12374467       1.13026597      -1.30133404       2.21012910
O        8.89294982       7.93489679      10.18715661       0.83188688      -0.67016203      -1.57646429
O        2.80719723       1.12766467       7.66702848       1.09281198       0.78437299      -0.00642017
O        6.71985617       9.11433818       5.65272078       0.65580792       1.28661173      -1.52352454
O        4.56327991       9.67929280       3.83336256       1.25258403       0.44648359       0.11054143
O        6.22530714       8.67720323      11.09837059       0.23231967       0.15909402       0.23554103
O        5.04446792       3.25463297      10.70491436       1.16394807       0.00721900      -0.71638151
O        4.71346272       3.05757241       7.87235854       0.86511144      -0.18814961      -0.31421233
O        2.70395926       7.16779051       8.51949318       0.38158117       0.79101808       0.52434843
O       11.28611409       3.62426096       0.51707958       2.17679380       1.37809875       0.80692040
O        0.26000478       4.11136180       5.58150360       0.32143652       0.31632583       1.02100911
O        3.63108411       2.36916546       1.38637732      -2.01474361       0.27289649       1.51214425
O        0.56245080       2.05876183      11.40547529       0.59795518      -0.92131701      -0.71109851
O        5.53362283       0.23451011       2.90767061      -1.61056832      -0.46443303      -1.41375134
192
Lattice="12.429 0.0 0.0 0.0 12.429 0.0 0.0 0.0 12.429" Properties=species:S:1:pos:R:3:forces:R:3 energy=-935.2220904545242 pbc="T T T"
H        5.18178162       0.96233105       3.16422117       0.86817497      -0.84454200       0.79451714
H       10.27354193       6.02430109       0.46795800      -0.45416227       0.05297171       0.10653940
H       11.94217376      11.66904194       3.73363405      -0.53951975       0.75900025      -0.59520040
H        1.63817630       6.58664246       2.47173195       0.64500980       0.70343122      -0.00170459
H        5.63256756      10.89768152       8.79448264       0.40532266       0.19920437      -0.45462649
H        8.91022580       5.52461561       5.30444438       0.23976722       0.77349192      -0.04485674
H       10.84024268      10.35063540       0.54065576       0.48676483      -0.15606912       0.11769630
H       10.77557967       3.42260394       1.95517377       0.64064404      -0.32806562      -1.55743592
H        8.87949509       5.10769667       2.15287455      -0.60831436       0.89135350      -0.53431412
H        0.04995436       4.42784259       7.88652343      -1.79298393       0.38210832       0.99080721
H        3.95218949       7.18036385       6.71131251       0.61389011      -0.20529943      -0.98759324
H        6.99993711       8.60486957      10.06355739      -1.23977891       0.81256393      -0.01653940
H       11.24527322       6.61727070       2.51749128       0.91268624      -0.93975181      -0.21461052
H        9.56531308       7.39149954       6.57839355      -0.68536566       0.30969176      -0.12202744
H        3.61872020       7.45504671       2.89424208      -0.00762257       0.23754092      -0.27299380
H       10.20549562       8.25519140       8.56625556      -0.19811592      -0.84006531       0.21572818
H        0.42556024       0.44104255      10.30843061       1.43590555       0.06246335       0.07893611
H        2.62977800       3.66610608      11.34393688      -0.86425095       0.80710840      -0.99352900
H        2.87293963       0.75752990       9.54259577      -0.68528795       0.29789014       0.84243375
H        0.19341543       1.26417610       4.08151588       0.22654097      -1.35558121      -1.98952303
H        1.26995785       1.32768020       0.61483527      -0.07975760      -0.64041702       0.65375930
H        7.96561479       0.05413672       5.88433272      -0.32078845      -0.39631133       0.71574421
H        6.17383916       5.52146097       7.68095221      -0.55688626      -0.73542456       0.45743597
H        8.74365398       1.06823983       4.38197776       0.78648687       0.48403487      -2.11860507
H        1.59048499       7.54543292       7.06108846       1.13855949      -0.42832478      -0.04011100
H        3.69495573      10.10721493       5.15978160      -0.02855621       0.26771019      -0.19232394
H        6.64423133       4.72673219       2.54097567      -1.33447195      -0.76222878       0.37792569
H        6.51730675       9.29374783       1.77492114      -0.55723080       0.37957014       0.22004605
H        1.23503495      11.68306724       7.68868976      -0.00316300      -0.33217338       0.62344534
H        3.01281653       0.81453642       6.94322131       0.21806537       0.19554135      -0.08248845
H       10.57476334       2.06911841       6.03733533      -0.07012481      -0.19986088       0.15235362
H        0.26939020      10.94181774       6.08324943      -0.34171924       0.14944713       0.88113626
H        4.93712752      12.30762607       4.20561536      -1.27776541      -0.82181793       0.71113565
H       11.30242246       6.92405776      12.31020705       0.26042579       0.07530505      -0.13601691
H       11.39026093      11.18046695       2.37225309       0.30286576       0.87977846       0.01766033
H        0.91435296       5.41755997       3.10399794      -0.09324965      -0.75457426       1.60061042
H        6.13618501      11.81736247       7.58118322       0.64570433      -0.18278967      -0.69055443
H        7.87725472       4.61022363       5.94656881      -0.14130486      -0.16887201      -0.03123240
H       10.96160702       9.28544934       1.68415811       1.17417379       0.66305336      -0.96269113
H        9.94698527       2.54032648       2.95673359       0.59093240       1.19203116      -0.06469293
H        7.98431396       5.88827096       1.04395099      -0.12776655      -0.50487425      -0.38763757
H        1.33773467       4.02151669       7.52504348       0.81910650       0.18867871      -0.83489094
H        3.40870606       6.19744679       7.85108192       0.66010340       0.71785585      -0.65775590
H        5.96384472       8.49833079       8.92309579      -0.24854145      -0.26795011      -0.29520999
H        9.82894959       7.14093971       2.50692074      -1.17781196      -0.43169900      -0.07234541
H       10.35874497       8.06517874       5.50554973      -0.50335003       0.36869461      -0.52298692
H        4.91354831       7.32410790       2.00672661      -0.82048398      -0.41931349       1.11754285
H       10.38871164       6.62367799       8.80204066       0.84487671      -0.36350582       0.28035223
H       11.47326348       0.31753294       9.56522673       0.65020456      -0.00401234       1.43881803
H        1.87833338       2.94007316      10.30077418      -0.25195439      -0.21679624      -0.26108418
H        3.12711979       0.64430188      11.07361224      -0.06926381       0.04803902       0.11641495
H       12.42033684       2.62356064       4.67255139      -0.10350610      -0.48340128       0.02028882
H        0.37646576       0.47333977       1.54905288      -0.30400643      -0.32543875       0.48695817
H        6.68886000       0.26397416       5.08228482      -0.21075589       0.30217150       1.41012043
H        7.41826459       6.14771203       8.41873190       0.59846629      -0.62181035       0.73531498
H        9.56809952       0.08228029       3.59566192       0.33479508       1.60359306      -0.64741358
H        0.40205555       6.57219902       7.44623400       0.47283325       0.06630569      -0.42729508
H        2.53336633      11.15897993       5.01005557      -0.66294983      -0.01002181       0.28384922
H        5.20570983       5.26134494       2.62094263       0.04186685      -0.76867072       0.16206906
H        5.63720484      10.38661568       2.58048485      -1.10125378       0.33827641       0.04895474
H        1.19373662      10.21516974       8.17832078       0.49620008      -0.22556380       0.36872198
H        3.76324692      12.03283991       7.80462629      -1.28628919       1.81108272      -0.34678285
H        9.36336707       2.95604991       6.39616581      -0.13030198       0.34746670      -0.01216446
H        0.31531420      10.24067959       4.76066655      -0.05454674      -0.24033632       0.10776519
H        5.21600033       3.67009413      12.20324750      -0.07016607      -0.23143801       0.17507922
H        8.38094258       0.16164170       1.96310327      -0.20673629      -0.72079958      -0.48774852
H        9.09557270      10.53987633       5.01468161       0.41137875       1.06978125       0.68855293
H        5.74436400       8.47855250       5.57257759       1.46033142       0.72669223       0.20310640
H        2.29805729       3.27667536       1.55037198      -0.86124177       0.03601419      -1.17962429
H        5.15797901       2.57505929       9.20600609      -1.18702037       0.41146741      -0.21875199
H        3.11104656       4.53943024       5.01035791       0.62341133       0.78443747      -0.53624998
H        6.37651551      11.82236970      11.08450622      -0.21342170       1.23870657       0.49905077
H        7.32320892       9.42188161       4.00020641       0.06152131      -0.56780352       1.59052880
H        4.76857327       7.70943961      10.78408383      -1.89011009      -0.07580059       1.13868037
H        9.21418155      11.71965384      11.80011108      -0.59709366       0.62043348       0.92040555
H       12.15979055       7.77848844       4.36907705      -0.03283522       0.40622934       0.17121027
H       10.91881355       4.45348358       9.98675342       0.21132043       0.11054116      -0.29551583
H        7.58529957       3.78944290       9.66858642      -0.73393536      -0.70693323      -0.27221277
H        1.47373535       6.83468439       8.94430515      -0.03763273      -0.32440862       1.01062718
H       12.22578435       4.52349667       5.33026885       0.11390956       0.00430635      -0.17319940
H        9.77985522      10.66167717       8.83967543      -0.44029561       0.82390478       0.77007604
H        9.21774400       9.62014071      11.08884134       0.07209956      -0.52383988      -0.38084698
H        1.54609402       2.37779674       5.79295652       1.21336761      -0.33506134      -0.11521062
H        4.39265874      10.66562680      11.82490866       0.31294486       0.04482168      -0.32046107
H        3.69568673       9.43587752       8.50359184      -1.42863627       0.31382059       0.77246123
H        7.64899017       8.34522175       0.27159290      -0.20353793      -0.18148902      -0.20062776
H        9.82131046       1.26030873       7.98415649       0.07086901      -0.04094726      -0.06265117
H        6.37407837       3.12731308       7.37685260       0.69575914      -0.86086189      -1.14240449
H        2.63478747       9.31288786       1.75538666      -0.21484593      -0.63608209       1.33299586
H       12.32387158       3.32402971      12.35390687       1.34418846      -0.17926100       0.15709801
H        3.44755420       4.07112101       8.98213728      -0.82583764      -0.46645020       1.49218335
H        4.87550411       3.53455411       3.86956836       1.02334599       1.21044746      -1.66239528
H        1.73065937      10.21671143       0.29246561       0.88516309       0.23558391      -0.57098964
H        2.78747917       1.05546952       1.93229593      -0.32818390       0.36277414       0.57732967
H        9.71789039       1.41798290      11.30298708       0.04203131       0.77816451       0.11248365
H        6.71633648       6.22422734      11.60452358       0.19441890      -0.58682448       0.46729499
H        1.59770846       5.66509105      10.06967032       0.25005644      -0.00183130      -0.40517702
H       11.44611499       4.26259434       3.95617443       0.32514344      -0.34074172       0.11348536
H        7.96527013       8.53077584       5.27615518       0.66319345      -0.25687785      -0.51943775
H        3.39029290       6.95660192      11.01509463      -0.95820146      -1.17714179      -0.70080014
H       10.67259983      11.94986170      11.05568745      -1.53453350      -1.66025149       0.55647075
H        0.05692374       8.22597921       5.85027511       0.07868904      -0.28659784       0.15357377
H       12.10341174       5.43061883      10.06039407      -0.05136086       0.09298842       0.00535171
H        8.82129430       3.51556383      10.52219515      -0.12768194      -0.57847798      -0.05741868
H        8.82181875       0.67685021       8.96678516      -0.11348287      -0.07622331       0.35194639
H        7.06048409       1.96933244       6.44087677      -0.90370103       0.98425317       0.15361941
H       11.17888928      10.31033671       8.27444042      -2.16417732      -0.40646862      -0.15916405
H        9.06696719       8.08229398      10.52527273       0.79260709       0.09638354      -0.32758914
H        3.12227837       2.49858809       5.32078560      -0.18663025       0.18276897      -0.06651987
H        5.43333219      10.13100107      10.73155190      -0.55215492      -0.10611661       0.27055495
H        3.05830195       8.62327069       9.58996930      -0.58461276       1.17845693      -0.33790410
H        6.29985738       8.75560663      12.20936909      -0.79641060       0.98198281      -0.84396658
H        8.20899247       1.29838879      11.27253592       0.69159278       0.98656776       0.35688465
H        7.70905082       5.07975528      11.20790605      -0.27469030      -0.08068397       0.12807955
H        2.31753287       9.29833276       3.36445310       0.28960412       0.02891592      -0.81480905
H       11.24515285       4.34025428      12.23388567      -0.14198210       1.98476978      -0.05453690
H        3.55455955       3.46742285       7.53436867      -0.11824393       0.60976347       0.45254675
H        5.22506193       3.13069958       5.29972567       0.05444072      -0.41839992      -0.21667082
H        2.71588735       9.24540155      11.94090531       0.08637358       1.07964073       0.64349554
H        3.36955793       2.02521520       3.10354567      -0.11594091      -0.40077385      -0.43746270
H        2.16039911       5.52446032       5.45509532       0.33103552       0.58645564      -0.36145695
H        6.30206016       0.81109645      11.80780538       0.07476489      -0.62744996       0.06332922
H        4.53445056       2.49710187       0.51105860      -0.12163769      -0.51589737       1.86964722
H        7.71579371      11.17644547       1.57681714       0.21537840       0.84507482       0.18035765
H        9.71671791      10.97882932       6.33744172       0.15746562       0.12398306       0.04771616
H        5.06500595       7.56306856       4.58053941      -0.24565825      -0.05124650      -0.28017567
H        1.17722008       4.33693428       1.38211469       0.61019733      -0.32737462      -0.73203001
H        6.09253396       1.74509983      10.07251585       0.42592587       0.75981160      -1.44874044
O        5.64889405       0.25252530       3.70533048       0.30267457       1.26883846      -1.61373202
O       10.83009942       6.10211696      12.10612453      -0.06995084       0.27648972       0.13879758
O       11.52587677      12.02989924       2.89469878       0.30728709      -1.17014589       0.51291151
O        1.03007939       5.87669419       2.28609332      -0.90722626       0.26765397      -1.30915150
O        5.56417199      11.76097920       8.35100191      -1.11058715      -0.19972515       0.86144460
O        8.64148406       4.60609928       5.34599271       0.06251614      -0.49173794      -0.01833190
O       11.51713252       9.94893496       1.14707604      -1.67793050      -0.89675898       0.45035222
O       10.35002896       3.47158305       2.79865249      -1.39907166      -0.71350512       1.24964362
O        8.49886114       5.99568876       1.86893718       0.64612963      -0.97016911       0.91966318
O        0.64193401       4.59335681       7.15428989       0.73314191      -0.38627193      -0.10680769
O        3.63743239       7.13809326       7.61610801      -1.09467244      -0.53609093       1.48443362
O        6.02448608       8.83369773       9.83223639       1.99938095      -0.95180917      -0.19086858
O       10.74057263       7.41870786       2.53135748       0.56013914       1.54568566       0.28113262
O        9.41774453       7.82635439       5.70262578       1.35638157      -1.25473519       0.96754701
O        4.43205151       6.91735778       2.79075546       1.40063156       0.22022804      -1.26765822
O        9.78011734       7.36184828       8.74449681      -0.90389487       1.07492357      -0.32563207
O       11.94621128       0.21648647      10.46218567      -2.08256679       0.23294212      -1.50528521
O        2.04315239       3.87004618      10.53275964       1.37357570      -0.44097001       1.07869694
O        2.49073711       1.01809790      10.44603874       0.44506991      -0.38009695      -1.23195143
O        0.05214308       1.65133250       4.91443212      -0.29886655       1.96246564       2.03910016
O        1.29512372       0.56337995       1.25031757       0.13484542       0.56673651      -1.25968779
O        7.01881995       0.30424962       6.05998627       0.84178203      -0.23490411      -1.89526797
O        6.80835365       6.22826500       7.69489811       0.06115596       1.43940068      -1.12707658
O        9.18410300       1.01418224       3.45207069      -0.94151217      -1.44853528       2.77750629
O        0.69137433       7.50787697       7.39089007      -1.33800629       0.37969667       0.11327716
O        3.42507912      10.93925320       4.71239332       0.71913452      -0.40440436      -0.15785201
O        5.69995606       4.38952881       2.66501634       1.16946776       1.70255779      -0.71863107
O        6.50694262      10.04724965       2.42878037       1.72967205      -0.77308446      -0.10690453
O        0.63704827      10.99835924       8.08381768      -0.46762711       0.45433355      -0.78590514
O        2.96336913       0.27042890       7.74877658       1.07259116      -1.80064335       0.59577764
O        9.89234795       2.20997186       6.72468734       0.42131337       0.21271999      -0.83492513
O        0.48609343      11.11456589       5.16373858       0.70118160      -0.01473296      -0.94687878
O        2.95947713       5.51535288       4.87633766      -1.09510243      -1.23743144       1.02741430
O        6.72492423       0.33833771      11.06493101       0.25010780       0.62472014      -0.16535964
O        4.55887837       2.95132764      12.12011543       0.29808185       0.86697901      -1.99967117
O        8.33914353      11.88372977       1.26625192      -0.08164980      -0.10156657       0.10470532
O        9.60304244      11.31752223       5.42561199      -0.87289326      -1.20790414      -0.41425987
O        4.88832208       8.14732769       5.33837850      -1.57652762      -0.41072883       0.00402553
O        1.60200870       3.58236795       0.88164211       0.48857779       0.17678862       1.61603874
O        6.08830584       2.45084240       9.32896222       0.87332602      -1.03409010       1.39437652
O        1.46622087       6.62339199       9.91294834       0.14953451       0.20362221       0.12867109
O       12.35031661       4.30194836       4.38330192      -0.48312267       0.42407423       0.17863760
O        7.45480725       9.30842795       5.00678242      -1.04961808       1.36000138      -1.28341945
O        3.92249919       7.64761990      11.37373369       2.56068841       1.24000815      -0.41862625
O        9.84392585      11.30269015      11.21790494       2.00591888       0.33653696      -0.84384012
O       12.09540693       8.52483751       5.00188585      -0.11257469      -0.35945425      -0.45753309
O       11.52814090       4.97363073       9.42473048      -0.36628947      -0.17222929      -0.06467989
O        8.44038387       4.16337222       9.88650072       0.80996418       1.01588406       0.22674364
O        9.75180768       0.60068587       8.71847993      -0.01767419      -0.26382722       0.02175890
O        6.70581693       2.93055441       6.45016619      -0.30998806       0.06821506       1.08669429
O       10.17361605      10.03212229       8.24292693       2.97138318      -0.15082211      -0.73410995
O        8.70925230       8.76234547      11.11679675      -0.71580652       0.34569195       0.42450046
O        2.50060456       2.50337550       6.08470489      -0.91380885      -0.17955831       0.44106805
O        5.32095576      10.72974287      11.50054755      -0.30421096      -0.62093684       0.32757314
O        2.93023902       9.52403085       9.15742930       1.81963725      -1.35952589      -0.57835063
O        6.68846459       8.21955535       0.45383778       0.85642066      -0.89967002       1.08560837
O        8.93498139       1.97649663      11.49115143      -0.59128501      -1.47132191      -0.38003968
O        7.06270401       5.35624874      11.92111155      -0.09183134       0.73135168      -0.34269563
O        2.41632388       8.73166876       2.56492093      -0.08193369       0.59204246      -0.40304214
O       11.39318122       3.41450637      12.19631643      -1.04291459      -1.96373222      -0.04260722
O        3.78862186       4.23764176       8.11574380       0.72084234      -0.15723181      -1.85207115
O        4.55288761       3.00472766       4.57969360      -0.69219822      -1.13082659       1.91278727
O        2.69057194      10.10728376       0.04056098      -1.11856362      -1.31602253      -0.04250539
O        3.37574157       1.82354634       2.14511473       0.88619120       0.16737981       0.35258863
192
Lattice="12.429 0.0 0.0 0.0 12.429 0.0 0.0 0.0 12.429" Properties=species:S:1:pos:R:3:forces:R:3 energy=-939.6039872737593 pbc="T T T"
H        5.29501993      10.15874489      11.33382328       0.50036901      -0.22694054       0.01431775
H        4.01998981       3.26511969      12.10995684       0.76956939       0.00766691      -1.99198014
H        1.07706556       0.90302296       3.65265079      -1.64763186       0.94051667      -0.36169369
H        9.90666768       8.26141489       0.70534321      -0.95814949       1.14461625       0.90604292
H       12.40125487       9.10699407       5.71379812      -0.26928764       0.28756667      -0.07735163
H        8.03536181       4.94819632       5.72049315      -0.13087483      -0.35006590       0.17991951
H        0.65315633      10.99121350      10.27833179      -0.08013125      -0.46549286      -0.25835212
H        9.28884926       2.57793264       2.90595175      -0.29916727       0.15806485       0.19572795
H        3.43273429       5.08264056       4.81158817       0.08769351       0.18588162       0.04090635
H        1.15084995      10.61809742       2.34330701       0.24833089       0.61165169       0.28183720
H        0.05146802       8.92232592       9.29156787       0.53184847       0.04193756       0.52131458
H        8.84104868      10.37584359       1.58445806       0.29941831      -0.17593703      -0.02195321
H        7.71682300       4.81109429      12.16441031      -0.41140639      -0.15196922      -0.28023662
H        6.18225080       4.32257589       1.77491668      -0.07642169      -0.01657053      -0.31017763
H        1.41670848       5.71798883       0.09363323      -0.60038985      -0.75907002      -0.20787880
H        3.17861282      10.62889593       6.02352823      -0.28602133       0.42898879       0.54069417
H        8.08435231       2.10869712      10.16728603      -0.43266955      -0.46122089       0.56832076
H        7.69652276       3.49912937       7.66936715      -0.03712435       0.24953477       0.14491875
H        3.18245646       0.43800512       0.20047919      -0.40719010       0.23472551      -0.07724798
H        9.27828807       1.41366454       8.00677363      -0.54829002       0.91313437       0.55943758
H        1.11489968       7.96504748       3.92045421      -0.53244234      -0.38475968       0.40296670
H        6.73476598       0.39876701      12.21680095      -1.55472292      -0.22441013       2.03620479
H        4.59456266       6.29187009       1.94946572       1.21006226      -1.56769264       0.30757122
H        0.86061260       0.75817144       5.72529064      -0.21868023       0.15763086      -0.04420592
H        9.76301446       8.13093392       7.53950233      -0.39138024      -0.34276765       0.39240989
H        2.67621481      12.34614474       2.85664972      -1.15024433       0.49480512       0.19625682
H        0.99566043       4.16697302      11.04947576      -0.63043268       0.05630121       0.68480667
H        9.64601414      11.51467600      10.79876455      -0.88436743      -1.24143574      -0.54728182
H        1.82462234       8.22213124      11.84340204       0.43077974       0.00857400       0.23044471
H       12.18297997       2.03480795       7.65277498       0.29501908      -0.26754700      -1.12398209
H        6.27278152       1.59095852       4.98700155      -0.62369349       0.14574438       0.30335540
H        7.49325890      10.51141431       8.73304491       0.30478545       0.34319707      -0.37849022
H        4.16459477      11.19867196      11.53757341       0.12534166      -0.51495142      -0.40998479
H        4.48508058       2.98758263      10.49862570      -0.23428726      -1.10895909      -0.20444215
H       11.81572476       1.14779348       3.51133430       2.20225944       0.92702048       0.29955393
H       10.76510410       6.97821967       0.69976126       0.07067792       0.32032325      -0.23809002
H        1.02948848      10.04377613       6.19685282      -0.53371016       0.49917141       0.01780893
H        9.39134060       4.50712510       5.05321168       0.17161946      -0.78030212       0.14233801
H        0.08418126      11.94806286      11.34504532      -0.44894149       0.22388060       0.00483986
H        8.26044043       1.72048019       3.78032461      -0.44731191       0.05723127       0.20803882
H        1.90722440       4.95529498       5.31587988       1.71774181      -0.89758131      -1.08909490
H        0.77936881       9.90333946       1.06971754       0.51852757      -0.40465081      -1.22469905
H        1.47784961       9.14629577      10.06248139      -0.61537260      -0.21860343       0.42632742
H        8.42608140       9.13835170       2.36962092      -0.31230128      -0.68171793       0.88800544
H        6.28733122       4.23993309      11.78342446       0.50111401      -0.03396277       0.80676222
H        6.63801742       5.61524500       2.43612585      -0.61011051      -0.26145911       0.37077389
H        2.59909775       6.45539481       0.78008975       0.15768800       0.26794610       0.14272513
H        3.28207962       9.63919883       4.84183872      -0.17356393      -0.74858530      -0.54974336
H        7.34269539       2.53782223      11.49713680       0.16338024      -0.14686703      -0.19855834
H        6.71849280       4.79524155       7.74502890       0.42113363      -0.53864263       0.01313972
H        2.18883385      11.74635284      12.14376196      -0.92352692       0.15291583      -0.93941655
H        9.98489076       2.71506480       8.30394849      -0.10184210      -0.00567880       0.36477728
H        0.08681322       8.67764353       3.11912799      -0.39421248       0.41611954       0.02947723
H        6.05187000      11.68213261       0.73722522       0.13651489       1.18282598      -0.24390139
H        4.57209665       7.73746873       1.42245475      -0.09952635       0.18695343       0.29050815
H        1.70505067       1.51704376       6.76955747       1.14393052       1.39550984       0.08583339
H        8.23975265       8.11476007       7.75079715       0.50741094      -0.34735508       0.58665041
H        2.33575734      11.73453026       4.15633338      -0.48582707      -0.18222705       0.30470454
H        1.35464803       3.48068927      12.40435190      -0.28772569       0.18099207      -0.13231590
H        9.72108976      10.08093600      10.08051239       0.21504780       0.13769202       0.16941467
H        2.91856177       9.30399988      11.39747404       0.22670530      -0.00854802       0.29688022
H       12.20860543       1.40040000       8.99754228      -0.07550051      -0.30658554       0.34618792
H        6.76855913      12.42798329       4.84422848      -0.32146534       1.06738565      -0.35750868
H        6.44913245      11.30337844       7.88087592       0.62901726      -0.42475820      -0.03727390
H        4.88391654      11.21866735       9.17030977      -0.12528296       0.07953735       0.90231545
H        5.79131079       2.64418369       8.39833801      -0.90731217      -0.64955587       0.19400982
H       10.01625174      11.72178081       2.82434697       1.17576418      -0.96463871       1.00082423
H        7.50683855       9.13989539      12.28297753      -0.29841511      -0.15776821      -0.06837936
H        0.53844178       3.48878652       8.98086219      -0.49063813       1.35119292       0.53327298
H        3.72709147       6.43860239       6.56790470       0.02214345      -0.27589708       0.55408759
H        9.15010827      10.09113043       4.37515740      -0.08726115       0.01050637       0.00104466
H        5.21696984       3.63737761       4.64524719       0.11181034       0.77000820      -1.02429488
H        8.29059039       6.19902581       3.36512629      -0.08722850       0.04265163       0.08023874
H       12.18068191       5.88556501       6.21115442       0.12990743       0.07844410       0.53332523
H       10.62384979       1.00925187      11.93136358      -0.15856910       0.33768891       0.09847346
H        8.29546309       0.62580727       6.07105871       0.06932636      -0.12920625      -0.18033012
H       10.11415481      11.79667182       5.22029743      -0.52784276       0.46796301      -0.13802539
H        6.65518525       7.86425303      10.36120993      -0.10834954      -0.73714600      -0.71552630
H       10.95006645       7.38436767       5.14197592      -0.28442998      -0.40196973       0.90714516
H        0.06062139       5.33678231       2.20925289      -0.00279083      -0.05291188       0.17489692
H        6.13542018       7.89932625       8.01899470       0.60623671      -0.06736472      -1.09348748
H       10.27649860       8.13646268       9.49142296      -1.02279421      -0.70789463      -0.74730525
H        2.13082251      10.47629567       8.05944290      -0.73614014       1.07880416      -0.17741010
H        6.91121221      10.12880404       4.51335651       0.03613173       0.28066873      -0.18729658
H        4.01471220      10.30649705       1.72062256       0.23394964      -0.07234331      -0.28578329
H        9.28052833       6.42050908      11.28684739      -0.86965688      -0.99723403      -0.64276650
H        5.12060790       0.79784391       2.17878743       0.01789460      -0.11301476       0.32095998
H        3.36309450       7.42400904       4.88038169       0.61231423      -0.81735583       0.96170261
H        3.24448342       6.39142079       8.70003074       0.02756008      -0.01823503       0.28490758
H        9.35807010       3.91889495       1.10224520       0.23734130       0.22306710       1.34914681
H       10.94470042       2.59890933       5.03292272      -0.20054141      -0.09584260      -0.22918300
H        0.61991600       3.09186949       3.01703337      -0.52325549      -0.62937179      -0.14034754
H       11.26784593       3.05539526      11.94256753       0.68033228       0.60688463      -0.11057339
H        3.52512406       2.18409471       1.72355658      -0.51419377       0.07043171       0.03296789
H        3.99165649       5.20289271      10.58398920       0.42158769      -0.63562966       0.15460111
H        3.46945398       2.61674915       7.56644693      -0.24081092       0.25860404      -0.53406908
H        9.99530938       6.40390923       5.94549132      -0.18773667       0.14708577      -0.25102968
H       11.99311572       6.78339988       2.72175629       0.23424920      -0.55208175       0.08169015
H        8.33662825       5.95880862       1.87807709       0.19786865       0.17645987       0.21716577
H        0.41466485       5.21800857       7.50273895      -0.08891693       0.00745730      -0.91490352
H       10.66577842      12.14235310       0.37570041      -0.30618775      -0.01672099       0.64543250
H        8.45189449      11.81172558       6.99947515      -0.03814948      -0.07813576       0.07886812
H       11.15820782      10.85927573       4.74233905       1.73016582      -1.02010116       0.35923745
H        5.47094956       6.81484007      10.00735394       1.81054172       0.25777321      -0.24307225
H        4.71631097       1.14376184       3.67301855       0.26403857       0.14044826       0.10847387
H        3.47590797       7.67007584       3.38486135      -0.35791237       0.30959147       0.18427670
H        6.42943138       9.00326359       6.98530538       0.13763991       1.44492241      -0.14837939
H       10.90572364       8.29391614      10.89420010      -0.15834214       0.65018936      -0.86396158
H        1.68211813      11.98236585       7.38219016      -0.48758897      -0.13530024       0.06922450
H        5.42684572      10.60498717       4.74903219       0.87644990       0.46893483      -0.75678301
H        5.33124822      10.20264704       2.53189633      -0.39519121      -0.57889669      -0.95697130
H        7.96446533       6.30101471      10.47422356      -0.63335021       0.20637616      -0.49763355
H        3.33690224       6.46694747      11.10064559       0.26406431      -0.25836636      -0.62951476
H        2.93783657       3.22476286       6.14435814      -0.13406230      -0.47137129       1.43356138
H        2.03712711       7.10591174       8.06802226      -0.03526025       0.05230592       0.05125713
H       10.28365185       4.76442198       2.01718309      -0.16480630      -0.07112068       0.28931372
H       11.51927952       3.95769806       5.44496914      -0.19421409      -0.28923797       0.34140085
H        1.55007098       4.23272137       3.37640432      -0.08340232      -0.24549001      -1.24627787
H        9.84496722       3.21883174      11.20683766       1.60452145      -1.34680332       2.15661640
H        2.16113351       2.96798186       1.62727883      -0.19143527       0.39637414       0.71170981
H        9.06070169       8.80579114       5.19100656      -0.51563191       0.04268485      -0.29146593
H        5.60864351       3.39232713       6.10395027      -0.53373481      -0.71418594      -1.03610629
H        3.93676858      11.69190497       8.04313058       0.67767340       0.23023260       0.26998086
H        5.12452749       1.18403400       8.30478024      -0.04991765       0.65536034       0.90679744
H        9.12330479       0.13673332       2.22953005      -1.65951678       2.48733790      -0.08603802
H        7.97383913       9.86688934      11.03276830      -0.77051677      -0.20471353      -0.01138258
H        1.64955035       4.50168281       8.82991545      -0.14118840       0.41752810       0.28267195
H        5.17552387       6.91425963       6.33230155      -0.02083407      -0.06995821      -0.38679290
O        4.50160094      10.50977709      10.89771365      -0.48353196       0.35574964       0.32662669
O        4.57303056       3.54100612      11.27762619      -0.79686818       0.96760187       2.05215659
O        0.27716459       1.63915956       3.69198865      -1.51234781      -1.50893700       0.22206255
O       10.31892612       7.63813134       0.11581903       1.08614941      -1.65220481      -0.86150758
O        0.05764209      10.02297246       6.05349284       0.55124022      -0.71086718      -0.08410792
O        8.77293878       5.24806479       5.17684229      -0.12986726       1.23271758      -0.34421125
O        0.86173635      11.78573845      10.77447346       0.47616060       0.60361783       0.02888268
O        9.17081509       1.78243450       3.46284140       1.03144416      -0.26849669      -0.48314025
O        2.64197687       4.53183852       4.68418015      -2.16253024       0.82587207       1.50101090
O        0.41779645      10.17830377       1.90202215      -0.90701006      -0.33694655       0.90286354
O        1.03739374       9.02658867       9.19703200       0.26060292       0.11658591      -1.32380323
O        8.70507379       9.39411229       1.49607567      -0.11608765       0.30927340      -1.03495053
O        7.00288055       4.20190587       0.05309069      -0.08687280      -0.00100304      -0.84971210
O        5.86879401       4.95828095       2.43892699      -0.25711075       0.20184664       0.42440770
O        2.04790187       6.43737633      12.40283561       0.62399222       0.88156202      -0.06257597
O        3.33185736      10.58275575       5.06731848       0.66268341       0.46364286      -0.28691451
O        7.50073773       1.77333530      10.89873232       0.33562154       0.32232945      -0.26777444
O        6.87139494       3.92148621       7.32362707      -0.02199767       0.36239269       0.09204228
O        2.84308364      11.97870055       0.37435740       1.28849816      -0.41203532       1.04924456
O        9.13304499       2.27999520       8.51317761       0.06252825      -0.75721193      -1.05840746
O        0.11381720       8.01825749       3.85419310       1.02389233       0.31318988      -0.38591999
O        6.10739668       0.24702811       0.61895728       1.35233818      -0.94947239      -1.75807961
O        4.03847349       7.06119982       1.88190157      -0.98029987       1.16580510      -0.36679763
O        0.98235769       0.88754225       6.68063006      -1.26054658      -1.37529296      -0.17833578
O        9.08895133       7.95330143       8.24235746      -0.32798628       0.38324251      -1.38435529
O        1.85121323      12.21464210       3.43020281       2.43215985      -1.08406692      -0.52092154
O        0.70022059       4.09410205      12.01315999       0.45883632      -0.42795800      -0.77842789
O        9.07997002      10.78352692      10.35228095       0.83306695       1.28573673       0.37720814
O        2.01587530       9.18356483      11.75269000      -0.35259711      -0.10305208      -0.07373705
O       11.89092706       2.19643162       8.54993398       0.04659138       0.34203562       0.85887894
O        7.01704073       0.97652973       4.89249695       0.58537401      -1.01195381       0.00585414
O        7.31783018      10.79384971       7.80825709      -1.03148403      -0.03491702       0.36879914
O        8.54158820       9.32970466       4.54137114       0.60017155      -0.15842827       0.33226711
O        5.13619158       2.96440025       5.31289755       0.59544387      -0.14000131       1.67890064
O        4.84961606      11.86507369       8.44616936      -0.65078538      -0.32222169      -1.19533292
O        4.99679919       2.10522104       8.67782658       0.56581890       0.36360853      -0.82241176
O        9.57381421      11.78934364       1.97738218       0.50499362      -0.97237582      -1.39108852
O        7.18880128       9.28900473      11.36105256       0.62455408       0.29859658       0.34706170
O        0.76435254       4.45807539       9.26086897       0.84305484      -1.60439855      -0.86148774
O        4.50987989       6.26807773       5.99383109       0.23707339       0.21894174      -0.38572435
O       10.67144728       7.11763199       6.06381542       0.47107892       0.37971709      -1.10747801
O       11.78096439       6.01595872       2.13848700      -0.61077534       0.18765407      -0.44417059
O        7.92658427       6.56537791       2.53112793       0.31271613       0.12961174      -0.05839021
O        0.44352084       5.25171556       6.50459373      -0.15221543       0.02460993      -0.04513088
O       10.91836388       0.07728659      11.94600726       0.18800665      -0.57105831      -0.71400308
O        8.97224808       0.04001989       6.48192302       0.54691087       0.31971563       0.28824843
O       10.48328240      11.41209398       4.38605932      -0.94466202       0.67484590       0.37359170
O        6.45255034       7.07189111       9.74374978      -1.82931585       0.86441553       0.97518773
O        4.37222228       0.85665694       2.82018954      -0.01920279      -0.00648692      -0.63243113
O        2.99110333       7.99092653       4.21057248      -0.32181588       0.52983400      -1.24927764
O        6.37935167       8.05619276       7.03758103      -0.48978836      -1.35901766       1.56808829
O       10.83496926       8.73142711       9.98079929       1.37287821       0.09065015       2.03351511
O        2.35588954      11.26342493       7.49069925       1.14243737      -1.46764073       0.51165410
O        6.26613044      10.83048983       4.23140255      -1.17853525      -0.80695545       1.00385047
O        4.87166505       9.83424914       1.71063654       0.37093946       0.85081070       1.03658279
O        8.69314073       5.75265984      10.79129222       1.71444439       0.56719181       1.40366651
O        3.94548793       6.15098896      10.36196042      -0.70054902       0.71611936       0.52238537
O        2.65110899       2.85553539       7.04877315       0.71235489       0.31811569      -0.60900787
O        2.72200825       6.44097596       7.87110489      -0.39107374       0.24621771       0.18203530
O        9.42564981       4.27298187       2.04639994       0.24995294      -0.31337361      -1.80257452
O       10.70157595       3.41508597       5.49592768       0.59142620       0.26177074       0.06729158
O        1.01836591       3.88227951       2.57915682       0.85893360       0.93982599       1.09058371
O       10.35432999       2.74937445      12.00136138      -2.14329878       1.19481631      -2.06274913
O        2.84252833       2.51573731       1.09451385       1.05952851      -0.29022477      -0.80890630
192
Lattice="12.429 0.0 0.0 0.0 12.429 0.0 0.0 0.0 12.429" Properties=species:S:1:pos:R:3:forces:R:3 energy=-933.6738563318662 pbc="T T T"
H        3.65491965      11.59733554       6.16096933       0.04497446      -0.78023885       0.58020041
H        9.35687815       9.91552005      11.03355860      -0.09312383      -0.12215530      -0.76211871
H       10.70995630      12.37724016      11.08013136       0.28034008       0.60968239      -0.79405076
H        3.30894225       6.13072041       6.24722525       0.59548871      -0.36381986       1.61661657
H        6.10576010      11.42547371      12.18733517      -0.14587288      -1.09419574       0.22298688
H        9.10350207       5.37200292       8.91179344      -0.64275353       1.11175500       0.59074173
H        1.46559817       8.62673612       0.46636609       0.15949489       0.65103271      -2.05979446
H        9.23121359       3.32020924       2.93985394       0.34208425       0.10397781      -0.60319622
H       11.15061631       5.11613302       0.32722287      -1.67313387      -0.11445181      -1.11567541
H        0.97638505       4.73236584       9.18640701       0.43001232      -1.52115403       1.34710971
H        6.83013259       8.09872074       1.86573995       1.70488005       1.14384804       0.15833923
H        1.45150725      12.36319800       8.69521807      -0.23995687       0.03133926       0.34025055
H       12.29837677      10.28837248       3.75734005       0.08497227       1.91116563       0.35840733
H        8.34052616       8.01580751       6.47869621      -1.44824817      -0.55657751       0.77066297
H        9.84111527       9.91963785       0.57853974       0.32115962       0.24609884       0.30826484
H        9.24540377      10.87875810       5.40442685       0.06494718       0.14804578      -0.63853595
H        9.09131078       3.57464647      11.57358439      -0.85037743      -0.23020021      -0.75581011
H        9.93869352       0.03916176       9.34418268       0.81991731       0.22038972      -0.66931129
H        4.16105541       0.77141652       0.37191691       0.47290027      -0.66754832      -0.22107733
H        2.50842910       2.14216521       2.06599394      -0.24681332       0.01421239      -0.05191341
H        4.77709935       4.24499985       0.05636249       0.49348682       0.32671391      -0.71009667
H        5.48922201       3.04714045       1.87865816      -0.94151629       1.00903048      -0.19551164
H        6.99368572       6.22379761       5.52820256       0.36211463       0.18223406      -1.47307885
H        8.08012421      10.76322992       1.02701227      -0.05973626      -0.07755498       0.44544700
H        1.05939568       5.86723507       6.05495843       0.21400506       1.84426704      -0.65938481
H       11.56365206       3.10201139       4.04297904      -0.22432109       0.01415241      -0.55717597
H        7.29834133       9.69269301       4.25229018       0.39310606      -0.07178177       0.07837299
H        4.00117309       9.93844467       2.01584922       1.09196641      -0.87528721      -0.94303086
H        7.53351171       9.57537541       9.49767217       2.42118500       0.04870712      -0.39186491
H        7.85681425       1.23904354       9.12540315      -0.41392290       0.02657870      -0.73427309
H        0.38434129       8.08009651      10.57326775      -0.50356282      -0.52372300      -0.50966543
H        2.86481226      10.71239169       8.26538518      -0.97375983      -0.45500702      -0.62510621
H        2.62932674       0.27957039       5.86550115       0.43886992      -0.52156531       0.05314312
H        9.68396677       9.98920174       9.53177358       1.69983344      -0.52702900      -1.63950332
H       10.97522869      11.26845569      11.94423032       0.80923106      -3.17312620       0.22910896
H        4.73228874       5.91063478       6.86479007      -1.33035314       0.24955118       0.57915166
H        5.46941613      10.04195069       0.15380904       0.45404452       0.22876773       0.11760395
H        9.70844856       4.68994414       7.68040875      -0.22227244      -0.13883686       1.20892202
H        2.20524089       8.19092044      11.65281969       1.06510076      -1.09164703      -0.82007276
H        7.83607968       3.15099652       2.30374097      -1.07133526      -0.65747129      -0.29640567
H       11.20427983       5.80106675       1.78099287       0.36984373      -0.59367011      -1.42285238
H        0.12886623       5.79152403       8.71002003       0.35870256       0.25706044      -0.62981916
H        5.40889615       7.95514336       1.86877305      -0.92239157       0.00352837      -0.19651422
H        1.62804762      11.56441627      10.10198986      -0.17671947       0.78202789       0.29500324
H        0.37393713       9.11681035       4.72823400       0.03829750       0.79576257       0.35278008
H        9.33751868       8.63778738       5.73089567       0.70448258       0.94218014      -1.71551235
H       10.29251201       8.55484729       0.19500290      -0.05475606      -2.55631355       0.63591816
H       10.53944615      11.78467327       5.11229299       0.24941011       0.18371126      -1.24367832
H        9.57374013       3.54622556       0.55660776       0.24316282       0.33652055      -0.40298539
H       11.26347071       0.81056625       8.90570212      -0.43896861      -0.17974734       0.35526835
H        5.52290233       1.22802859       0.71470432       0.51437416      -0.21316209       0.07012399
H        1.70987876       1.35528549       1.03762789      -3.13327930       0.33227208      -1.07403939
H        4.36363327       5.09010643       1.27974530       0.06320504      -0.39531511      -0.62777696
H        5.81613393       2.13500411       3.15901470      -0.17683253       0.19830807      -0.10963737
H        6.87886517       5.76056542       6.88792005      -0.64106987       1.61428741      -0.05514365
H        8.97113886      11.90998656       1.09497155       0.89341122       2.53392283      -0.92768901
H        1.23186956       7.44874123       5.74762147      -1.29760027       4.18713460       2.47067269
H       10.38466244       2.36068497       4.77688769       0.53255219       1.03945122      -1.49280835
H        8.54497367       9.86629208       3.31610944      -0.22363237      -0.48687966       1.36050304
H        3.54526290       8.79357737       1.15537849      -1.14600133      -1.21559590      -0.82552848
H        6.35062299       9.56051932      10.13456889      -0.85620273      -0.55438761      -0.68846636
H        8.41142124       2.54241367       8.43808294      -0.75840722      -1.29512609      -0.34001831
H       11.50964146       7.32166114       9.98545089       1.41185798       0.25545657       0.45837308
H        4.26045190      10.41882560       8.21957741       0.02625980      -0.65437182      -0.90628011
H        4.07064115       3.15127494      10.27826596      -0.79660268       0.27392444       0.36210768
H       11.91966532       2.70321281       0.51543393      -0.66996072       1.45538511      -0.40348013
H        0.09238571       0.52355063       2.75471101      -0.18521533      -0.53672905       1.13027283
H        4.26803104      12.16793508      10.42558604       0.58176659       0.44560821      -0.49190127
H        1.39011275       3.33749718       4.54169291      -0.08012062      -0.17867191       0.82251358
H        6.65555450       2.40272956      10.66600618       0.19500209      -0.18209990       0.45452274
H        7.25302740       6.21616791       3.34225451       0.69016944      -0.44277972       0.08920804
H        2.94575004      11.89343147       3.58400514       0.60191182      -0.92169513      -0.70734965
H        9.82078295       1.46147694       6.85987117      -0.83778435      -0.21326304       0.35809719
H        2.36754733       3.59118830      11.66296828      -0.37852955      -0.24603422      -1.07448629
H       10.61160372       7.76656356       2.78634160      -1.51184374      -0.46202777      -0.84815893
H        1.53708657       7.16313436       2.23948223       0.28153238       0.24947502       0.14004587
H        7.00512538      10.76731950       7.76019312      -0.23488015      -0.16619942      -0.33594538
H        8.85870367       7.10442601      10.14570665      -1.05016100       0.24275755      -0.29792100
H        1.13240095       5.95078334      11.39067192      -0.32335609      -0.15184960       0.22817296
H        9.75334153       6.03559760       5.94580726       0.96072671      -0.96644885       0.75683297
H       12.40085257       9.31820577       7.19035820       0.87712490      -0.33699364       0.01358022
H       10.89785352      10.69289558       8.04875905      -0.42068831      -2.26586798      -0.49465604
H        6.56608817       2.75322440       7.59256950       0.41024690      -0.33989452       0.28564024
H        2.48368175       6.28362635       9.24163389      -1.24188827      -0.31236171      -1.60149584
H        6.84041532       7.01035378       9.78820020      -0.26774574       0.58893957      -0.46255253
H        2.20867668       6.16402977       3.90548410      -0.09420132      -0.34440590       0.29355240
H        8.02752204      11.56843070      10.31560289      -0.89894656       1.29567271      -0.56810367
H        5.64595390       2.44159286       5.69305869       0.57896846       0.17656246       0.21473565
H        5.91566212      10.72194000       5.39557314      -0.87444659      -0.93526970      -1.92483980
H        2.78459400       6.20849460       0.08937599       0.18245283       0.06657649       0.20182546
H        0.05473467       0.55228431       7.03480736       1.14528940       0.38236168      -0.45512048
H        4.91014137       3.65004421       4.59634963       0.52610573      -2.10639796      -0.31904340
H        1.25237381      11.75282494       0.16303588       0.14887323       0.66518288      -0.10548596
H        2.56685733       3.78985389       6.65367656      -0.13308166      -0.66873607      -0.26015596
H       11.01231660       2.98666117      10.24963005      -0.77790683       0.41660625      -0.04404113
H        6.70738102       6.53071493       0.31656690       0.09706720      -1.04333981      -0.05593518
H        0.73615854       5.24411588       0.33513056      -0.27907713       0.50545701       0.09298487
H       10.26373453       4.84439106       5.19078063       0.21151942      -0.56047621       0.40349522
H       10.68591800       2.73768047       7.18005904      -0.24848307      -0.45714439      -0.09092959
H        2.53547952       2.19048139      11.96687242       0.09230681      -0.34307579      -0.79399873
H        9.12200293       7.13293031       2.80941991       0.26394447      -0.29425342       0.36126479
H        0.93554952       8.63407561       2.40690675       0.09997356       1.20530378       1.82824753
H        7.41765226      12.08397707       7.08809452      -0.45190365      -0.99229993      -0.44832763
H        9.47201915       6.60798051      11.45665506      -0.72863142      -0.72096230       1.62920094
H        6.53898325      11.76435968      10.01212519      -0.20852921       0.51157329      -0.26284562
H        4.71000381       1.43404954       5.19520708      -1.18425391      -1.47537390       0.02265261
H        1.51579660       8.99625657       7.46063401       0.00430125       0.17331657       0.16002013
H       10.20805492       9.27414414       7.40575386      -0.15461518       0.59412733       0.14099173
H        5.23290833       3.37818100       7.87910078      -0.85322614      -0.09106133       0.65373545
H        3.80727704       7.07784888       9.40142704      -1.39752254      -1.28571365       0.50612861
H        7.01484837       5.56384215      10.06241931       0.20763603      -0.14331945      -0.08317920
H        3.49076717       5.45538103       3.43129595       0.20898588      -0.12118696       0.26334856
H       12.35347879       2.71119848      10.82817234       0.15793845      -0.33399840      -0.87923912
H        7.45839940       5.31687601       0.71775627       2.03127251      -1.83050472       3.40828658
H        4.99701374       9.55757065       4.84841921      -0.07479429       0.00275143       0.03853841
H        3.86801950       7.09789439      11.87239333       0.00111708      -0.43771310       0.43451679
H        1.08184512       1.73180539       6.92907732       0.13809392       0.57617869      -0.03605223
H        5.24218058       4.84010614       5.46535960       1.07834280       0.28416192       1.34318211
H        1.98499546      10.75239928      11.84584136       0.90363558       1.00988596       0.29720938
H        1.25244900       4.03230391       7.24230751      -0.32872181      -0.72317834      -0.34452382
H        8.17930774       4.91887995       3.23158699       0.04270299       0.96993525      -0.03384255
H        2.82388904      11.85126706       1.98236616       0.55337433      -0.84609936       1.74896835
H        5.13402418       4.19510551       9.68106562      -0.25350641       1.57623284       0.34968636
H       11.90847297       1.19939298       0.36791065      -0.68840225      -0.68243027      -0.55026442
H        0.65779685       0.04739073       4.14928479       0.23788224       0.25543721       0.06285145
H        3.51893203      12.17875792       9.16038121       0.26004331       0.30671592      -0.32470627
H        1.49338680       4.03516331       3.23868380      -0.70865930       0.02570380       0.11670988
H        7.40966646       1.34502231      11.51953747      -0.21990807       0.03346410      -0.33153943
O        3.45173897      12.27907497       5.51724878      -0.87100473       1.55782256      -0.57028635
O        8.98688948      10.18410663      10.13362994      -1.06132963       0.41537848       2.42544254
O       10.78848922      12.16414559      12.01446142      -0.54453530       2.88230242       0.71772023
O        3.75926139       5.86289368       7.12134234       0.51339122       0.39329404      -1.91097301
O        6.29697213      10.43718910      12.19453544      -0.20942038       0.69209785      -0.23214212
O        9.48850566       4.54708379       8.66271846       0.85005645      -1.54701883      -1.81260925
O        1.74882466       8.97402794      11.91341865      -1.64918299       0.32157934       2.78083482
O        8.64542612       3.66848662       2.20943651       0.70256950       0.05435962       0.66935846
O       11.68265261       5.24887027       1.08822878       1.02928019       0.56902356       2.56074725
O        0.91005591       5.27084275       8.41847672      -0.72843090       0.87754120      -0.79742619
O        6.21026464       7.39512190       1.84857406      -0.45390629      -0.99428486       0.32021323
O        1.42493540      11.49992506       9.15871085       0.40285930      -0.52917449      -0.71580762
O       12.40441441       9.36497814       3.88376433      -0.31533767      -2.25503320      -0.54828088
O        9.27413107       8.18587463       6.55806865       0.41438098      -0.83457142       0.50536880
O       10.41774758       9.43677676      12.36804991      -0.13955318       2.21836803      -0.61481220
O       10.00479999      11.36000666       5.76943530      -0.28344255      -0.05420189       1.72243793
O        9.87007611       3.81310983      12.07198757       0.47565079      -0.21301164       1.01390354
O       10.91200282      12.36781590       9.19517559      -0.79026138      -0.08037627       0.12674638
O        5.10149478       0.54028509       0.15770681      -0.88339262       0.77223972       0.25667653
O        2.52061058       1.37849419       1.46788999       3.22447484       0.00804556       1.25324144
O        4.43519632       4.16712968       0.94184288      -0.56725381      -0.06362327       1.26856426
O        6.09776380       2.41754313       2.26322073       1.36660797      -1.15505744       0.13799826
O        6.59631303       6.56712556       6.32940256       0.54609795      -1.94809930       1.51817814
O        8.88548239      11.08393349       1.50526473      -1.35652394      -2.59671685       0.53660012
O        1.38915541       6.61146177       5.46734276       1.05652359      -6.00536665      -1.72025899
O       10.59338910       2.92277638       3.94713230      -0.35892112      -0.94027145       2.12382890
O        8.27423077       9.47775431       4.20564684      -0.19706911       0.66452757      -1.51417371
O        4.36541593       9.21420676       1.35409540      -0.05533493       2.58566220       2.06813664
O        6.68035803       9.23839688       9.24398326      -1.90807580       0.19725524       1.36081018
O        7.91797923       1.67301322       8.22553936       1.33893650       1.61770379       0.74333824
O        0.09332316       7.30877051      10.01709276      -1.17075675       0.42130501       0.47900482
O        3.46332343      10.20126070       7.66524784       0.99580089       0.72194899       1.27780955
O        8.11350567       5.83308102       3.66687874      -1.18713971       0.05761628       0.10365345
O        3.08428077      11.29224116       2.79648989      -0.86092499       1.25181353      -1.19417661
O        4.86279322       3.29625611       9.75054258       0.92077378      -1.73802018      -0.48389666
O       12.21892855       1.91296698       0.92750188       1.10373462      -1.05046560       0.99141642
O       12.38346335      12.31234652       3.51011481      -0.30494300       0.41328511      -0.96853793
O        4.43807075      12.32554255       9.46129902      -0.70670417      -0.49295253       1.13606657
O        0.90565993       3.38279415       3.70906705       0.84821441       0.18992320      -0.68067182
O        7.42339970       2.28207448      11.27091488      -0.05109767       0.79857532      -0.05179780
O        1.46140335       5.36675933      12.10538777       0.44009523      -0.31433088      -0.60296863
O       10.28537314       5.18515108       6.11370105      -1.05944664       1.59242320      -1.28747173
O       10.70353741       1.82736849       6.82090635       0.99461026       0.64050499      -0.24099229
O        2.37156217       2.72471922      11.15172730       0.33914572       0.87879226       1.72811359
O        9.84929135       7.40730520       2.21664786       1.79546046       0.83574992       0.31297371
O        0.87280020       7.81229348       1.95576652      -0.18573707      -1.47987272      -2.34008651
O        7.07508578      11.16974416       6.86943482       0.45470789       1.13328002       0.65145221
O        9.66576921       6.86461904      10.57892668       1.87791375       0.51476118      -1.29031829
O        7.33435486      12.31671872      10.11579526       1.22679458      -2.10499484       0.73819473
O        5.47184738       1.91040445       4.88635465       0.69989236       0.69251247       0.12590516
O        0.85554302       9.08638906       6.76132614      -0.90047850       0.06930502      -0.32097626
O       10.83803104       9.65914588       8.05968998       0.78560772       1.98460324       0.83578813
O        5.96895449       3.45133727       7.27381989       0.50643665       0.32434969      -1.27472936
O        3.13802878       6.48559149       9.88204227       2.84010225       1.81988618       1.03948232
O        7.04385986       6.18994446       9.31204733      -0.11179290      -0.34557767       0.62671442
O        2.57462496       5.63061920       3.16474914      -0.24695973       0.28723392      -0.43257720
O       11.85201812       2.60649316       9.98313639       0.82139842       0.10139579       0.68793683
O        7.05101521       5.64884162      12.41538381      -2.05380373       2.56220684      -3.71557882
O        5.53844075      10.28905681       4.51151366       1.26050627       0.83803263       2.11924238
O        3.55890713       6.80035122       0.32411893       0.14146508       0.29584501      -0.42219558
O        1.02077786       0.76477011       6.88945441      -1.13328662      -1.14757484       0.39794666
O        4.72404795       4.55238356       4.74423387      -1.73348955       2.00036339      -1.66509858
O        2.07575917      11.75689540      12.05978716      -1.02707071      -2.14070389      -0.16770285
O        1.67865969       3.34861228       6.63761611       0.64497768       1.76219745       0.50498945
