192
Lattice="12.429 0.0 0.0 0.0 12.429 0.0 0.0 0.0 12.429" Properties=species:S:1:pos:R:3:forces:R:3 energy=-939.4722189747308 pbc="T T T"
H        5.14707034       9.94376480      10.78262789       0.46755819      -0.04372806       0.37932547
H        3.53913310       2.98329556      11.14595941      -0.63229039      -0.48210220       1.15473740
H        0.57545627       1.03590127       4.00503071       0.39997987      -0.40015197      -0.21670200
H       10.10040676       7.98376998      12.34305063      -0.80714435       0.60487062       0.62325042
H       12.09760280      10.64370212       7.54653165      -0.84831312      -0.41882732      -1.08452699
H        7.89808615       5.36774812       5.77881506      -0.85344806      -0.34567963       1.01268122
H        0.52350617      11.31349789      10.27758844       0.10687064       0.83764352       1.25721190
H        8.89737787       2.86964018       3.34152129       0.29611774      -0.26129285      -0.14639219
H        2.34914762       5.53376101       4.38377780       0.26113860       0.39780724      -0.13557083
H        0.89990741      10.75179640       1.87634714      -0.47028742       0.44134603       0.97024579
H        0.33799302       9.19096949       9.32030527       0.90892779       0.35389143      -0.60355389
H        8.65159366       9.40977059       1.70683308       0.29486551       0.54512022       0.66138437
H        7.69767740       4.47682677      12.34350450      -0.79965486      -0.57743517       0.25694255
H        5.17755929       4.84031142       1.46499769      -0.04049913      -0.11945008      -0.08806038
H        1.60501710       5.41424474      12.30368262       0.64353388       0.34457966      -0.26754413
H        2.43560419      10.83351542       5.83285679       0.22518496      -0.23699740      -0.48181770
H        8.28541896       2.09557673       9.90171591       0.82488258       0.51066534      -0.41243826
H        7.89306801       3.86867109       8.03633503      -0.27282016       0.62318304      -0.20958638
H        3.09430202       0.72580931      12.34452724      -0.06261554      -0.36047482      -0.13406168
H        8.68925907       2.02718154       7.61489975       0.27658789       0.36838911       0.18248098
H        0.70991346       7.66054676       3.94041641       0.11007600       0.28601349      -0.27030116
H        7.04529574       0.18020482      12.27287559       0.20570492      -0.32270190      -1.85692770
H        4.07358603       6.84839464       2.01139865      -0.06670935       0.81421004       0.16222000
H        0.77618588       1.38297014       6.16018327       0.18961343       0.52945147       0.39302609
H        9.69074555       7.96629397       7.26861771       0.21155813       0.15568577      -2.48301605
H        2.55501296      12.33512002       2.61832501      -1.39880291      -0.11023669       0.58314405
H        0.68793685       3.99822907      10.70644368      -0.02682035       0.06255441      -0.48742130
H        9.54580157      11.49764717      10.72813667       0.36902280       1.16155012       0.57718546
H        2.21677834       8.04670137      11.99349155      -0.27584229       0.37753135      -0.14316698
H        0.31146308       1.47061964       8.56078330      -0.46907833       0.25686351      -0.07405221
H        5.72134637       1.59476823       5.42715304      -0.24461519      -0.38398498      -0.64240463
H        8.39670068      10.62373110       8.66061697      -0.12012263       0.44038921       0.12113446
H        4.02270649      11.02187153      11.06137642       0.22791582      -0.19864677      -0.29483155
H        4.25078128       2.74367210       9.74399640       0.31265428      -0.05878286      -0.00097753
H       11.62018283       1.06724311       4.63116842      -0.30179426      -0.56642591      -0.10934210
H       11.10469733       6.84468840       0.07578483      -0.12706869      -0.05728946      -0.07724478
H        0.10639946       9.72690274       6.44599018      -0.75801511       0.24520139      -0.10630913
H        9.11774809       4.90830772       5.05081686       0.70987107      -0.78699156      -0.07063255
H       12.09820666      11.96768554      11.45715696       0.33373481       0.19224209      -0.25814788
H        9.22941299       2.02761405       4.57246873      -0.04782901       0.08205288       0.69531922
H        1.07939934       5.12322568       5.05424389      -0.40530207       0.04417866       0.11506546
H        1.25382401       9.65947309       1.02509849      -0.14072997      -1.05255850      -0.37121002
H        1.64582325       9.28093087      10.06603091      -0.11165461       0.40959616      -1.11465953
H        8.18000274       7.89498998       1.51149734       0.62423470       1.84598809      -0.59433112
H        6.23748898       4.04349570      12.04849134       0.53836112       0.02758426       0.69348645
H        5.84138649       5.81460208       2.43244675      -1.24741262      -0.52742500      -0.20214985
H        2.25312629       6.30723875       0.90572663       0.09598190       0.70991353       1.95983652
H        2.33387872       9.48382599       4.99455329       0.32324491       0.58440545      -0.24134393
H        7.18391785       2.36738021      10.95892803       0.03312326       0.56344512       0.41582688
H        6.84995981       5.14199579       7.80047226       0.17203466       0.88069662       0.72347027
H        2.13162939      12.06370145      11.77310593      -0.32311620       0.00897517      -0.03259895
H       10.01867836       2.62548437       8.08003688       0.36261844       0.20698866       0.08224576
H        0.09937504       8.66237394       2.80038427       0.37424509      -0.96648971       0.70658351
H        6.27309788      11.50191031       0.82144690      -0.25934615      -0.80769485      -0.94349661
H        3.98040382       8.45758530       1.64963981      -0.21745613      -1.03761679       0.76149754
H        1.90017443       2.19145685       6.97561785      -0.13791880      -0.02886083       0.03268927
H        8.75715769       7.45601080       8.43009601       0.44350816       0.31488011      -0.23552458
H        1.98831265      11.29961498       3.62026806      -0.20373209       0.47026656       0.28471566
H        1.33293313       2.98597085      11.72490693      -0.20115752       0.59523861      -0.11326395
H        9.96667403      10.19433892      10.04391444       0.09059350      -0.02279859       0.30167738
H        2.96199951       9.34109234      11.48936494      -0.44523341      -0.20074141       0.21947937
H        0.02451108       1.27033412      10.05629086      -0.79965600       0.30208121      -0.96704478
H        5.56528109       0.20102110       4.58554858      -0.29461884      -0.04880935      -0.71400922
H        6.97831644      10.91913329       8.02516214      -0.59806633       0.20202271       0.26399998
H        4.56463427      10.93291837       8.49833700       0.78100461       0.75468564      -0.87402494
H        6.13040777       1.59716888       9.02385367      -0.62666124       0.58022134      -0.15973959
H       10.14924283      11.79136704       2.53145599      -0.10320203      -0.55715451       0.13495463
H        7.27196068       9.23949664      12.27978857      -0.30903991      -0.05075775      -0.56042909
H        1.36456664       4.08800948       8.57145163      -0.48821852       0.75732794       0.26637821
H        3.58828760       6.70107318       7.18994825      -0.25949821      -0.00652295       0.96047418
H        8.33617034      10.35535372       4.18045425       0.83417559       1.15574784       0.10294734
H        5.50002843       4.31158935       5.05887298      -0.30637393      -0.55673310      -0.17853551
H        8.00186893       6.17506338       3.16540885       0.06075373      -0.02736643       0.72626285
H       11.61923096       6.78349004       6.54399972       0.58855799      -1.05341173      -0.10229438
H       10.43965847       1.18893919      12.06592295       0.05440396      -0.69977689      -0.19786406
H        7.55164036       0.46968981       5.90324206      -1.38421233       0.04695817      -0.57013045
H        9.81862317      12.41925166       5.20011798       0.09616120      -0.48854740       0.08858504
H        6.97110181       7.77082243      10.33725131       0.42170414       0.82754418       0.24100546
H       10.39206516       7.88079827       4.69903191       0.83206092       0.55207226      -1.21303698
H       12.31812847       5.02017113       1.69230123      -0.08924622       0.37912373       0.21080812
H        6.63141257       7.74628068       8.10947442      -0.14751359       0.85092695      -0.37508899
H       10.62537478       8.57817504       9.27767600       0.38489463       0.01829726       0.25001940
H        1.88026613      11.01931307       8.10121310      -0.08762228       0.34021005      -0.28604983
H        6.15927630      10.10630991       4.37655622      -1.48654769       0.71577875      -0.23501529
H        4.17524943      10.68354788       0.83923207       0.51739041      -0.23250723       0.59501878
H        9.49136587       5.59627166      11.48821172      -0.21846672      -0.04936341      -0.02792531
H        5.72794968       0.94789435       1.27984997       0.12221233       0.09142701       0.15085005
H        3.04819185       7.36032591       5.40522040       0.53155349      -0.31635381       0.45267959
H        3.33664641       6.83725388       9.36444920      -0.11951160       0.33511767      -0.31468225
H       10.06981240       3.67142197       1.46784243      -1.47372231      -0.10108379      -0.06550569
H       11.39226596       3.08298197       5.10461655      -1.10373019       0.86848801       0.87582727
H        0.63121631       2.79784507       2.91885230      -0.43652137      -0.37425601       0.16018639
H       11.73288910       3.16592648      12.27427607      -0.20195696      -0.23056780      -0.12032501
H        3.84525058       2.31916192       0.93679110       0.93261273      -0.37228339       0.38000625
H        4.50145604       5.00580930      10.42304894       0.04570165      -0.48664929      -0.27842084
H        3.82014433       3.18917660       7.05609209       0.56319784      -0.00207496       0.03663725
H        9.38476084       6.97090191       5.38588888       0.31310824       0.07098213      -0.02450708
H       11.94172004       6.48277116       2.35503826       0.33375937      -0.64205879      -0.84145392
H        7.84591310       5.83851709       1.71420241      -0.15605571      -0.10579824       0.13069862
H       12.28865308       5.73955010       7.56204915       0.18130664       0.07842082      -0.50955512
H       10.30474141      12.18349170       0.31533240      -0.34718152      -0.24054504       0.82070910
H        8.24440407      12.28904940       7.15725974       0.15492522      -0.32250435      -0.73539419
H       11.01676367      11.41726970       5.43807176      -0.47654803       0.52120740      -0.66381410
H        6.15048411       6.57908935      10.01940271      -0.49186997      -0.57625731       0.01422859
H        5.59608791       2.11426498       2.36084511      -0.89573773      -1.11026680      -1.11293672
H        3.09934870       7.79498655       3.91740003      -0.23665836      -0.20637728      -0.33814204
H        7.10326831       9.01831033       7.26584797      -0.34002569      -0.26894788       0.21103336
H       11.26656637       8.33308664      10.69277473      -0.27201167       0.14053386      -0.13169584
H        1.82011080      12.42276001       7.14817344       0.11193175      -0.40307945       0.86711319
H        4.55777678      10.23837126       4.61147445      -0.28989940      -0.04158952       0.23060603
H        4.84541679      10.42684798       2.25499940       0.00148446       0.18930219       0.66001658
H        8.55300944       5.67709447      10.32147872      -0.22062885      -0.72870816       0.59741617
H        4.03640133       6.22278084      11.16748720       0.32605426       0.09429859       0.18444347
H        2.84149459       4.20685911       6.45221598       0.24784278      -0.59483753       0.83141523
H        2.33844728       7.96729783       8.67170555       0.23474992      -1.15657952       0.47807963
H       10.16997799       4.87700739       2.19647104      -1.00475825       0.17557293       0.10413290
H       11.32496579       4.36511458       6.00039205      -0.61444951      -0.52161375      -0.11786257
H        1.51303250       4.01015472       2.88494633      -0.77350077      -0.44498593      -0.35749441
H       10.45680711       3.61945798      11.65573103      -0.58910450      -0.12691637      -0.28456024
H        2.51238618       3.08435305       1.09346042       0.20885911      -0.48865722      -0.64073275
H        8.49804337       9.18267383       5.19974116       0.40607581       0.26262789       0.36923750
H        5.99129977       3.67400268       6.31737599       0.24393826      -0.29032623       0.44639813
H        4.93158805      11.62891905       7.05930828       0.22539103      -0.34921802       1.12467586
H        4.96391570       0.89527331       8.29644494       0.38938607       0.96163203       0.33933956
H        8.77010502      11.89361285       1.92926407       0.39841765      -0.51195660      -0.27799204
H        7.59713619      10.12340162      11.09015876      -0.20830793      -0.43188687      -0.35858775
H        1.47587291       5.57375000       9.01542175      -0.30881697      -0.30733465      -0.08736138
H        4.96895323       7.22561370       6.69012451      -0.34957067      -0.21318164      -0.03666342
O        4.21808427      10.16489088      10.59835218      -0.58811966       0.42104076      -0.12651821
O        4.09389858       3.37223096      10.48615662       0.93190615       0.82529178      -1.35790569
O        0.00904011       1.60756033       4.55206970       0.26988056       0.32537646       0.10184156
O       10.48559816       7.25546229      11.85107203       0.98679416      -0.82211822      -0.03665879
O       11.71006285      10.18983410       6.73630270       1.56397490       0.23380623       1.10513665
O        8.36281762       5.49929917       4.96064052       0.34331245       0.71522423      -0.78977024
O        0.58695709      11.94099272      11.06368240      -0.52203475      -0.92791750      -1.06039640
O        9.11332003       1.95477164       3.62570022      -0.29344267       0.02684106      -0.62097342
O        1.76777846       4.76389096       4.47133209       0.28229067      -0.16748709       0.33373109
O        0.65815317       9.81222274       1.78446037       0.38733558       0.64469620      -0.84625260
O        1.32087004       9.45703094       9.10577866      -0.94597012      -0.54599212       1.84243494
O        8.53102826       8.75157362       1.02325304      -0.83672220      -2.38107430       0.15205460
O        6.90841543       4.02439769       0.35476412      -0.13660273       0.37578482      -1.31126730
O        4.92961875       5.39256850       2.22502564       1.34291621       0.54054242       0.40891125
O        2.32821462       6.08875960      12.42772594      -0.58304180      -0.86624760      -1.81370362
O        2.64420281      10.42900672       4.91838711      -0.50104849      -0.76111036       0.80431256
O        7.46189544       1.77127819      10.26297456      -0.82967412      -1.26018004       0.34240260
O        7.03751055       4.22419110       7.65424656      -0.04361793      -0.80732571      -0.64728666
O        3.04657173      12.20241138      12.10361496       0.51972849       0.16922092       0.37662910
O        9.06575168       2.73603516       8.20897054      -0.27458709      -0.98815269      -0.28529998
O       12.36611292       7.82789513       3.36648383      -0.76879670       0.39171181      -0.24931556
O        6.76544310      12.32169050       0.69223849       0.45381213       0.70168728       2.39398211
O        3.58047705       7.71233827       2.19606297       0.37727616       0.29529586      -0.78933053
O        1.25066558       1.44508669       7.04170756      -0.09910104       0.03286734      -0.75481669
O        9.57849632       7.93418174       8.19128642      -0.72512213      -0.42756868       2.99275897
O        1.68562853      12.07855594       3.06078014       1.58061823       0.25980620      -0.83362260
O        0.71987583       3.75201976      11.65323385       0.62168405      -0.30822696       0.38366416
O        9.23567434      10.85023477      10.09723823      -0.47028552      -0.98190314      -0.32847665
O        2.05929124       9.00454950      11.79143485       0.80687327      -0.35482291      -0.16685998
O       12.02907212       1.63793453       9.22563026       0.93831920      -0.43424256       0.95462773
O        5.80803517       0.61339133       5.41285110       0.34985769       0.49325113       1.40874515
O        7.92311623      10.82518927       7.82351026       0.26530539      -0.75043490      -0.35341500
O        8.07794838       9.46879553       4.38447825      -1.22604250      -1.18165810      -0.59326534
O        5.46815233       3.44670068       5.51951354       0.00478604       0.69788956      -0.23805270
O        5.24386776      11.48229877       7.99976742      -1.06414095      -0.47894826      -0.30695052
O        5.27296854       1.81614373       8.55669786      -0.08031971      -1.35716973      -0.19515599
O        9.56714050      11.30036465       1.90667967      -0.47151694       1.26918797       0.37208799
O        6.90242390       9.47755950      11.37318264       0.61634966       0.28607320       0.45743778
O        0.82367138       4.81762574       8.98179074       0.79559113      -0.37795179      -0.05038670
O        4.27857996       6.53456276       6.53336011       0.78829681       0.28280122      -0.89297784
O       10.09496007       7.64171260       5.56587509      -0.98922935      -0.62865796       0.94392972
O       11.78326695       5.83858800       1.57135686      -0.03613988       0.41995076       0.68275205
O        7.52928250       6.48589688       2.38153455       0.05874240      -0.12260756      -0.92311921
O       12.24821632       6.00414237       6.60653259      -0.65336506       0.60761266       0.32058988
O       10.43662455       0.19568689      11.89861333       0.31000453       0.77312425      -0.49010126
O        8.39952359       0.41400397       6.33724432       1.63766225       0.80419539       0.85476585
O       10.60274808      12.01386875       4.74188417       0.17326398      -0.19056359       0.73257359
O        6.98438759       7.00798658       9.73811040       0.62703506      -0.05917480      -0.41337601
O        5.05388580       1.49718970       1.76787220       0.54516979       1.33684636       1.47822340
O        2.47254131       7.58281220       4.65589430      -0.20091969       0.42505568      -0.30540495
O        6.40430266       8.32461263       7.32228786       0.37438504      -0.57204150       0.19693139
O       11.22166583       9.01053041       9.96786727       0.15831964      -0.29772522      -0.50696265
O        2.22248225      11.50938293       7.32148351       0.27868656      -0.32408348      -0.33496610
O        5.31743819      10.64829516       4.16873909       1.79509745      -0.81039066      -0.34471711
O        4.89140078      10.18416094       1.31541800      -0.52839068       0.28957318      -1.06245260
O        8.84757208       5.02009058      11.01061834       0.42821141       0.94696233      -0.40329748
O        4.69686782       5.97712017      10.48518157      -0.89227414       0.16566177       0.39561815
O        3.00820122       3.66644899       7.27656881      -0.83930135       0.44334417      -1.00173703
O        2.61572043       6.99246409       8.70919494      -0.21289195       0.69000496      -0.17471588
O        9.41641747       4.25363005       1.97540109       2.16735519       0.20275727      -0.17354462
O       10.74867389       3.60296263       5.69513402       1.56411833       0.13040972      -0.73928700
O        0.96534683       3.42686232       2.26761479       1.02277825       0.94809928       0.12728759
O       10.75898105       2.94729910      12.28396795       0.25993801       0.02840620       0.39614230
O        3.11915135       2.69290614       0.40407990      -1.37287885       0.52819632       0.59326284
192
Lattice="12.429 0.0 0.0 0.0 12.429 0.0 0.0 0.0 12.429" Properties=species:S:1:pos:R:3:forces:R:3 energy=-936.6812030389227 pbc="T T T"
H        3.11232487       7.09276572       1.48077154      -0.33443477      -0.02262494      -0.11809279
H        5.26650802       0.82197453       4.01669538      -1.28694271      -0.87441210      -0.85577229
H        6.15541886       9.01056698       9.01321943      -0.16069387      -1.70554729       0.11429675
H        4.69191456      10.37313714       6.10492353       0.41167639       0.08610849      -0.46151725
H        9.32590815       6.74607932       1.69492526      -0.17473751       0.08514844      -0.13986043
H        6.10252084       4.37252993       6.00587770      -0.28479830      -0.19280018       0.29151666
H        4.59791658       4.31071877       8.38533179       0.02441095      -0.86500195      -0.59459605
H        8.09661248       0.35956468       9.20051480       0.22647927       0.45482214      -0.15335936
H        3.62314655       9.88430989      10.66231759      -0.30399304      -0.31668442       0.14077516
H        3.30985487       5.97485723      10.33782229       0.31902133       0.10984849      -0.45810752
H        0.25205274      11.18347376       3.16476447       1.64939615      -1.46156091       2.40516754
H        9.48844883       2.57521578      11.24694237       0.24695232       0.46056761       0.05667371
H        1.28789516       2.40683209      11.28859957      -0.90535308       0.11137648      -0.13380144
H        7.54868969       7.53051166       7.38273263      -0.53191879       0.99044821       0.81230640
H       11.05255594       5.32471187      11.65945486       0.32585879       0.10638513      -0.10111466
H        5.73626319       7.91830779       4.80145826       0.31677739      -1.28395343      -0.30948422
H       12.22744485       7.22826974       7.75748453       0.67363541      -0.06599902      -0.04467974
H        3.19206030       0.67084537       2.77297054      -0.93826783      -0.09330107      -0.51969322
H        6.55362056       4.70829142      12.21633185      -0.58491414       0.87429797       0.20581911
H        6.28753544      11.87628169       5.20545270      -0.13637726       0.70958368      -0.15183697
H        0.83498941       1.20050917       4.07524598       0.41822812       0.87771770       0.37961492
H        7.90828276       1.65289021       3.42112909      -0.18236769       0.17230371      -0.89802578
H        0.47165961      11.34216097       7.15629235      -0.60824000      -1.14225760      -0.66460698
H        9.31653944       3.55238608       3.52773246       0.59677795       0.30512909       0.54336086
H        1.25344950       8.45907232       6.93771754      -0.20897366       0.58337194       0.93931818
H        7.19785594       9.48179835      10.72192410       0.56368868       0.37521330      -1.19244840
H        8.57013641       8.31601647      12.25805962       0.27561456       0.20981948       0.13232251
H        2.63235852       5.87603904       5.54968951       0.18673923      -1.04781468      -0.10949278
H        1.75882476       6.57231308      12.13608408      -0.45935921       1.61339685       1.37702085
H        5.15134025       6.85475027       9.60150704       0.16552942      -0.04833025       0.37941964
H        7.51524512       2.78463855      10.71940427      -1.75042346       0.57921267       0.37021793
H        2.28479081       0.89522300       0.83788138       0.08918743       0.78706438      -0.01838776
H        4.51243297       6.57207311       1.12264745      -0.06190204       0.28854589       0.41802370
H        5.81078036       1.97677513       4.80717151       0.69591767      -0.75005960       0.12106402
H        4.99312027       8.77875713       8.10538892       0.28033696      -1.44331514       0.46713976
H        3.61170744       9.33996474       5.52329661       0.42987877       0.67634373       0.33760731
H       10.45945034       6.83595260       0.58493652       0.40210025      -0.17909526       0.01260790
H        7.24687898       3.87717375       5.08490936      -0.27922278      -0.03297955       0.10811932
H        4.56765923       2.98441017       7.42697885       0.25431501      -0.13706972       0.60861412
H        8.44233652       1.62396744       8.40174149       1.36469698       0.40877826      -0.73825460
H        2.26390355       9.21090585      10.43862965      -0.16095700       0.03221403       0.04299831
H        2.13282610       5.62470019       9.34134751       0.16135915      -0.05076564       2.10138400
H        0.51996104      10.73675101       4.77581083       0.01106761       0.22950557      -0.56573673
H       10.01845418       3.69281575      10.45713333       1.35835287       0.62381130      -1.69598916
H       12.40017478       1.58629808      10.82500410       0.48606639       1.86899644       0.91845662
H        7.66870347       6.06981670       7.61225861      -0.34621889      -2.47102658       2.64200419
H       12.28891124       5.61416971       0.10998773      -0.42649250       0.19260290      -0.17764035
H        6.47590133       6.72248326       5.53770748      -0.88427033       0.59512595      -1.93996879
H       10.74719513       7.21101061       8.03432633       0.13439287      -0.33341310      -0.10868226
H        3.11250848      11.72232862       3.57139442      -1.34705928      -1.19621263       0.12317047
H        6.56489952       5.57749072       1.11010349      -0.04591725       0.07986810      -1.00080646
H        7.10236175      11.17325373       6.31605813      -1.07573627      -0.35677248      -0.89104501
H        2.09817824       2.09505583       4.42178359      -0.31456454      -0.27234434       0.05602651
H        7.24441067       2.58093057       2.32523883       0.16952919      -0.89277651       0.09975056
H       11.59952416      10.64211008       6.48595392      -1.08464815       0.39661452       0.28755253
H       10.27142606       4.63345690       4.41825948      -0.99608739      -0.99637053      -0.85166258
H        2.02910061       7.30336544       7.34594175      -0.48794660       0.56029063       0.68867227
H        8.11028082      10.19759783       9.58737962       0.44328603       0.08751907       0.00411106
H        7.45486021       7.37693831      12.16107061      -0.86442528      -1.32766964       0.14933755
H        2.87773179       7.29549852       5.06586730      -0.30015531      -0.01125476      -0.04892447
H        2.07819448       8.05797967      12.38955682      -0.44334256      -0.25864671       0.33821579
H        5.21009466       6.07563543      11.01760248       0.43686750       0.23736191       0.32262332
H        6.96915197       2.66776588      12.07414657       0.31262728      -0.79154386       2.57791938
H        2.07255992       2.37032387       1.43193434      -0.06697926       0.63443454      -0.64348845
H       11.89475918       5.26260141       5.86878139      -0.28674452       0.85950692       0.55950603
H        0.76449768       8.09499033       9.54463177       0.39822849      -0.57707607      -1.01182591
H        5.83473758      11.98815780      10.25375591      -0.42673153       0.41990602       0.21824907
H        3.76581477       2.89733280      12.03902617      -0.05006553       0.53359069      -0.11345134
H        9.54151316      11.95260243       5.72985271       0.11386141      -1.27878237       0.55960747
H        0.95288127       1.03437321       7.72154298       0.78526824      -1.19309141       0.37379514
H       12.02894906       2.98400199       0.44418898      -0.18723608       0.23740136       0.21254468
H        9.26423487       7.21863293       9.56638009      -0.15241247       0.39693473       0.02401260
H       12.32791804      10.34236329      10.28018680      -0.14489805      -0.59603801      -0.59376040
H        5.12326302       3.44156046       2.22929019       0.26270995      -0.44847880      -0.63766046
H        1.17825335      10.97796165       1.02424616      -0.37638660      -0.06718868      -0.14952056
H        5.60100615       0.67367145       6.83182763      -0.34543058       0.56611979       0.53751246
H        7.07658995      10.49142229       3.88153406      -0.18261619      -0.21257856       0.88846315
H        9.88689104       0.54845312      11.96166734       0.66276791      -0.05095994      -1.37899658
H        6.07259490      10.28111752       1.73417672      -1.15237097       0.15840604      -1.84764859
H        0.00115104       6.84199253       4.04697994      -0.43361919       0.09851623      -0.10491656
H       10.15029553      10.93856711       9.42853996       1.56791346      -0.81365836       0.69429099
H        1.22211416       3.40803812       7.73297450       0.29509940       0.12484356      -0.02013986
H       11.27802519       1.95785168       7.69280371       0.88661981      -0.34295871      -0.00052372
H        3.71550923       0.03181786      11.05795204      -0.28670594       0.35272599       0.51024845
H        2.19488009      11.73685055       8.87956192       0.23011223       0.00378165       0.10521100
H        5.00685180       4.90730984       3.90141198      -1.03266691      -0.05906281      -0.41785893
H        9.05196011      11.41699079       0.67875719      -0.44893293       0.09454179       0.30801258
H        4.35382388      11.84339316       8.50207741       0.06965856       0.48577705      -0.30694933
H        8.84249309       7.71284549       5.44131928       0.58551830       0.98642060      -0.20451905
H       12.13121562       4.20692103       9.77675972       1.17273951      -0.43042549       0.44955407
H       11.86339532       1.53555889       2.35170669       0.85679277       2.31317724      -1.61947797
H        6.91832753       5.58373027       9.72732599      -0.30464455       0.35835658      -0.14153914
H        7.18125747       6.38273460       3.16647863       0.30708433      -0.30632049      -0.61184870
H       10.26497252       1.66208107       5.72467863      -0.45618586      -0.38658374      -0.06612389
H        3.68833531       8.41945375       3.17768588      -0.27116588       0.12107124      -0.68085930
H       10.47024713       8.86994035       1.94188434      -0.26079949      -0.20948194      -0.60383884
H        5.63172607       9.71165793       0.31958278       0.57982403      -1.09436188      -0.64465987
H        0.63547858       8.00032606       4.67967279      -0.25561462       0.33687415      -0.00389526
H       11.90653722      11.14817403      11.36983953      -0.05975930       0.85087010       0.89427101
H        4.95262595       1.97796613       1.96748293       0.15815151      -0.40238662      -0.23953698
H       12.09425079      10.54955964       1.25005309       0.75247125       0.48175145      -0.54896439
H        5.61208018       0.92542755       8.39413804      -0.32542110       0.70094992      -1.11861765
H        8.36063685      10.14709582       3.08322764      -0.70855205       0.33034903       0.13125896
H       10.02543798       0.21244178      10.33099689       0.21539258       1.49181310       1.55481286
H        8.74582667       0.45535899       1.32332317       0.57001792      -1.09036879      -0.20241014
H        3.64204593      10.60070380       7.98392373      -0.45265407      -1.09641437      -2.08145284
H        9.49069642      11.37441663       8.09407033      -0.09612424      -0.04635235       0.87618010
H        2.40742803       4.48620106       7.60687346      -0.63775260      -0.89904401      -0.07314977
H       10.40569929       3.12571964       7.94138515       0.11597508       1.61990625       0.54553896
H        2.70005196      11.54938304      11.74750879      -0.16005583      -0.20996649       0.00294209
H        0.70777149      11.90918405       9.35784444      -0.73896418      -0.16387763       1.09733423
H        3.85506650       5.23968782       2.83695192       0.37388633       0.35296456       0.31824376
H        2.32522674       9.13964763       3.72669871      -1.13994229       1.04640400      -1.08407400
H       11.52209944       9.04052298       2.95939173       0.16734313       0.62051184      -0.13637323
H       10.13351565       8.03663172       4.64504046      -0.63090998       0.79952322       0.61377898
H       11.41573659       5.15081866       8.77487170       0.14074777      -0.09510704       0.12448470
H       11.12765774       0.22464458       2.30333311       0.48267527       0.69399632       0.70753976
H        8.22471678       5.11629724      10.26852603       0.33825964      -0.13512356      -0.36311120
H        8.25469518       5.28882531       2.94206151       0.22852206      -0.19181805       0.28352511
H       10.27253013       0.98099785       4.31385812       0.59937429       0.15424592      -0.55892063
H       11.07218639       3.75356456       1.44240529      -1.03783005       0.29529383      -0.18109494
H       10.48319929       7.88112409      10.15964743       1.76349934      -0.15180102       1.48401192
H        0.18058193       4.14410564       5.25210298      -0.47069284       0.40533000      -0.89158508
H        0.24497218       7.82437166      10.95724951       0.04880622      -1.36449334       1.41306831
H        5.77161778       1.02986255      10.71384743       0.58858112       0.96860814       0.40953713
H        3.18358290       4.25141047      11.44971641       0.15814820       0.26061391      -0.61481591
H        9.47520304      10.27768393       5.77906231      -0.14510780      -1.40460641      -1.21142304
H        0.69039109       1.72338641       6.21286898       0.37752897      -0.26577950       1.80027744
O        4.00396577       6.96859725       1.86727912       0.34937194      -0.42667154      -0.47608360
O        6.04873623       1.05232435       4.50485590       0.55942560       1.50627611       0.85169865
O        5.59503118       8.18816464       8.66589184      -0.04925563       3.09589809      -0.84607810
O        3.87911395       9.88476255       6.30882321      -0.69027322      -0.79948312       0.18477393
O        9.89224967       7.35867017       1.18802828      -0.48400959       0.36643345       0.15726230
O        6.29403664       3.74967521       5.28910143       0.74648313       0.24419532      -0.42544279
O        4.34985427       3.93510957       7.50554578      -0.07305928       1.25007543       0.17682140
O        7.75993230       1.23581721       8.92737064      -1.58842708      -0.70063581       1.01163479
O        2.90254431       9.41608657      11.14086469       0.53556770       0.33317453      -0.12350789
O        2.35488375       5.77626068      10.33255030      -0.86475419      -0.07635435      -1.57476784
O        0.85464034      10.63407305       3.83720976      -1.08704824       1.37937950      -1.64152944
O        9.43989207       3.57635760      11.19127282      -1.22439646      -0.97247727       1.55331669
O        0.29826728       2.48953008      11.18712770       0.36240044      -1.73186512      -0.56727421
O        7.82921053       6.71661988       6.98911444       0.70867778       1.55118750      -3.66982723
O       11.61831562       6.06329913      11.97826177      -0.14480269      -0.69267734       0.06757210
O        5.98488700       6.95984811       4.64008104       0.82281818       0.71909601       2.30944985
O       11.46392232       6.64046788       7.65824631      -0.87386778      -0.04132435      -0.04746254
O        3.61954565       0.05791570       3.38815028       2.30032909       1.28505250       0.62256013
O        6.22444700       5.58386675       0.15431982       0.64772770      -0.79674302       0.65803955
O        6.27087088      11.06820354       5.74991946       1.60997173      -0.28756426       1.11752472
O        1.15520185       1.96151586       4.63906625      -0.22060498      -0.52781560      -0.55402740
O        8.03998357       2.00981622       2.50300243       0.34075027       0.37474644       0.65637472
O        0.12377558      10.62996480       6.51605480       1.66762560       0.49806858       0.36463953
O        9.35003441       4.39750429       4.03916593       0.33552431       0.23237015       0.19703369
O        1.49017946       8.03233451       7.79425531       0.67602998      -0.63787481      -1.27950347
O        7.19783699       9.99719773       9.85013643      -1.43950033      -0.22282934       1.11112229
O        7.67173730       8.26149295      11.89488224       0.32067348       0.99333661       0.03916498
O        2.27636852       6.75559524       5.63098422       0.22665394       0.53997194      -0.02611758
O        1.56656663       7.32610695       0.40056411       1.26439527      -1.21726849      -1.88521178
O        5.08427210       5.96644688      10.06355713      -0.33979080      -0.07130603      -0.70196140
O        6.65348131       2.96262380      11.25221517       1.06909225       0.03878307      -2.86097718
O        2.19629896       1.45063744       1.65266331       0.08309949      -1.15927016       0.33023389
O       11.92459052       3.34676755       1.36608977       1.32730227      -0.59558818      -0.27040730
O        9.85341972       8.00279564       9.48578021      -1.94038357      -0.12865500      -1.53478137
O       12.02049993       4.90122571       4.98223201       0.58406391      -1.08443002       0.42952939
O        0.28008979       8.46590658      10.27574260      -0.50116900       1.86514601      -0.45382827
O        5.22562305       0.33499342      10.35162980       0.47257800      -1.32894095      -0.61635307
O        2.99853151       3.50062497      12.01373419      -0.24704584      -1.06499039       0.80675715
O        9.50403986      11.07266405       6.28388417      -0.01857562       2.73614970       0.97137423
O        0.55913483       1.75893047       7.24260083      -0.93609053       1.75325821      -2.07813115
O        5.40130542      10.37400865       0.95125424       0.70624827       0.94562319       2.46918163
O       12.27002170       7.80543704       4.15348113       0.36484965      -0.74981116       0.09504265
O       11.81608659      11.16321844      10.40749011       0.47837239      -0.71335814      -0.24736069
O        5.50774259       2.70779052       1.65117212      -0.66559395       1.04796141       0.81043681
O        0.27246490      11.17932331       0.72135678      -0.62978122      -0.74617167       0.77616286
O        5.12252902       1.16370380       7.54610718       0.56340603      -0.97042358       0.42873885
O        7.51041356      10.65239970       3.04483210       1.00356014      -0.29747821      -0.98173451
O       10.24866239       0.89245799      11.06693379      -0.84791287      -0.82824789      -0.22173217
O        9.44662399      12.25772138       0.94926966      -0.44513118       1.07980802       0.57160014
O        3.87440065      11.05260104       8.76997739       0.10029687       0.38449961       2.27426305
O        9.40246792      11.41454458       9.10364177      -1.18829636       0.36947055      -1.92609989
O        1.43673786       4.37432687       7.77479706       0.51361115       0.71353850      -0.14083763
O       10.34736633       2.19571559       7.81909219      -1.12693144      -1.45604735      -0.75457669
O        2.88085277       0.06040371      11.60249650      -0.03212368      -0.07001592      -0.13570765
O        1.31148136      12.08150599       8.63989028       0.44228201       0.24189229      -1.15582660
O        4.14897212       4.58917572       3.50733319       0.61687843      -0.37037660       0.15467135
O        3.10230953       8.63815480       3.91431115       1.42348442      -0.79070918       1.52242327
O       10.98894393       9.59660384       2.33377085       0.24341993      -0.18108548       0.55654720
O        9.35154315       8.49258042       5.07445008       0.19045163      -1.70970335      -0.37397317
O       11.31343245       4.32638473       9.31441157      -1.21876391       0.83808788      -0.65051430
O       11.57823675       0.86755443       2.92852705      -1.54841563      -3.12189510       0.83637585
O        7.87440330       5.66344667       9.53477810       0.10764173      -0.46938549       0.63559061
O        7.66071618       5.88608150       2.43991458      -0.59713445       0.68458659       0.67615278
O        9.75787330       1.06008385       5.12825534      -0.32432657       0.24966742       0.57408769
192
Lattice="12.429 0.0 0.0 0.0 12.429 0.0 0.0 0.0 12.429" Properties=species:S:1:pos:R:3:forces:R:3 energy=-940.1364522254656 pbc="T T T"
H        3.96821116      11.12695651       0.16323553      -1.17315986      -0.02195551      -2.21178576
H        4.61432829       2.29300885      11.55497853      -0.39973043      -0.00985556      -0.03724028
H        1.25540373       0.48254535       3.25191452       0.10310318      -1.78351406      -1.68448276
H       10.18961253       8.49689480       0.74929719      -0.28929943      -0.17251130      -0.01254274
H        2.14638754      10.71287259       5.06091339       0.05975519       0.03588975      -0.05520216
H        8.62392540       5.52048007       6.83375958       0.93580786       0.00335456      -1.54549118
H       10.98484283      10.96754386       9.92018905       1.19336413       1.31580634      -0.11034844
H       10.99485145       2.33777264       2.98164777      -0.43137850       0.34316581      -0.14783627
H        3.61857688       4.87246509       4.64343121      -0.26331011       0.09260643      -0.01946803
H        0.64622407      10.32290766       1.63967030      -0.21801492      -0.59005155       0.01141212
H        0.89548612       8.63429890       8.09807089      -0.73219035       0.17997002      -0.03530220
H        8.70759762       9.70417110       2.52116468       0.31475042       0.35710765       0.44675690
H        8.23886997       5.03673129      12.34570595      -0.15521628      -0.02219103       0.60885742
H        6.56385748       5.32001431       1.51942414      -0.46939752       0.38788604       0.72989991
H        1.88225914       5.42792438      12.16718057      -0.71422129      -0.59291681       0.72705123
H        3.90407668      10.29163123       6.09935171      -0.27850871       0.52813672       1.29612472
H        8.15838025       2.26364864      10.51493155      -0.63009981      -0.17315573       0.44055285
H        8.46990040       4.31668981       8.71053996       0.73763040      -1.40691478      -0.05333607
H        1.35852589       0.84527376      11.14564874       0.35320467       0.63281084       0.03136525
H        9.03817271       1.83792927       8.65273937       0.66148758       0.98853443       0.07774664
H        1.70833229       7.67697961       3.78777875      -0.52034496       0.27179044      -0.51974138
H        6.70867993       0.03954276       1.48251097       0.49679652      -0.00630953       0.17759532
H        5.07397178       6.72102869       1.44438310      -0.93839501       0.83399088      -0.02812457
H        1.82019716       0.96906965       5.25002163       0.06547860      -0.62881215       0.03471749
H       11.37996800       8.13750431       7.00079189      -0.01248605      -0.40485834      -0.24947692
H        1.67994157      12.22095066       0.80425609      -0.10920371       0.06520817       0.18941330
H        0.79717490       3.49904351      12.09610208       0.22259932      -0.52919150      -0.71027986
H        7.55999527      11.57758393      11.46438511      -0.43466076       0.16400974       0.92868077
H        1.68914427       8.01903833      11.70353344       0.13558887      -1.04697732      -0.05820911
H        0.73623358       1.09171108       7.46869254      -0.30290280       0.36869294      -0.09668803
H        6.40490219       3.00437628       4.90951739      -0.39004887       0.14756846      -0.13729839
H        7.15335221      11.53728776       9.04614060       0.35809235      -0.21161077      -1.02639355
H        2.80820776      11.35603830      11.44619446      -0.48843261       0.97874186       0.37516619
H        4.53468377       1.54682899      10.19801920       0.11832207      -0.42595314      -0.46818943
H        0.34185107       1.52315180       3.89036868      -1.54124835       0.17954862      -0.00852302
H       10.95120618       7.14081667       0.50259617      -0.38637405       1.22903136      -0.52104159
H        1.06419002       9.62802637       4.90737404      -0.02912405       0.06451931      -0.16396011
H        9.38215073       4.64073440       5.78788835       0.44205254      -1.15795213      -0.06901095
H       11.18014035      12.36086757      10.57398070      -0.40130828       0.36039947       0.35766767
H       10.44042516       1.86243082       4.32909692       0.07251222       0.39768312       0.46370860
H        2.07849951       4.86079455       4.92480145      -1.06357667      -0.36847766       1.13347841
H        0.05972128       9.08854018       0.78329461       0.07731413       0.90631590       1.09406953
H        1.55588645       8.94109619       9.49233457      -0.18263250      -0.31771512      -0.11736656
H        8.24476738       8.27448778       2.36184993       0.62751395       0.65741040      -0.56243001
H        7.67275983       3.65030814      12.25562408      -0.33147437      -1.38798770      -0.46040992
H        6.81693756       6.36062843       2.63626039       0.30225873       0.17721098       0.23941298
H        2.92527720       6.54159096       0.21287088       0.51560552      -0.07639830       0.67089983
H        3.98545856       9.11532712       5.14562683       0.14467477      -0.83690432      -0.63342071
H        6.65695025       2.14076425      11.11092516       1.12500939      -0.27000573      -0.23799267
H        8.12633858       5.70170723       9.08579875      -0.21440254       0.59242157       0.00560433
H        0.70025849      11.96741550      11.03661950      -1.46670162      -1.14799431      -0.84608953
H       10.21915907       2.73230774       9.41595059      -1.37103849      -0.26092567      -0.45864251
H        0.57444575       8.32032920       2.87621736       0.10906652       0.88032425      -0.72072430
H        7.50984146      11.10833998       1.53474533       0.06287581       0.32446806       0.16408309
H        4.75204527       8.10362629       0.74763060      -0.21854090      -0.58669721       0.25835066
H        2.71702784       1.48584381       6.39666033       0.00160723      -0.22224991       0.22420082
H       11.43960247       9.66668044       7.14407325       0.06830896       0.13975655       0.07011956
H        2.77858149      11.83176760       1.88541181      -0.88393116      -0.03955064       0.08614101
H        1.71151293       3.71678077       0.96064283       0.79119813      -0.78007839       0.69737771
H        8.47525338      10.51619392      10.80193705      -0.22338260       0.39578748      -0.23803531
H        1.85516634       9.50684072      11.73108313       0.25028125       0.29056566       0.02651298
H       12.28986679       0.63156472       8.58874608      -0.72155055      -1.39358970       1.10924044
H        6.56942830       1.41380746       4.84658475      -0.45680862       0.09917917       0.43868440
H        6.29299920      12.13114270       7.94756195      -0.00551605      -0.22742203      -0.10707634
H        4.99543813      11.71760301      10.33849330      -0.40703164       0.09070225      -0.15095474
H        6.70540961       4.04624871       7.80252563      -0.37865871      -0.08690521       0.28837463
H       10.87177767      11.01836258       2.32458359      -0.91548077       0.95022941       0.19873946
H        7.11461957       9.08287064       0.29236827      -1.07926577       0.16550013      -0.09275049
H        0.96682318       2.51569373       9.49320931      -0.48792221      -0.39672064      -1.68772127
H        4.77199719       6.61211153       7.45151567       1.15904951       0.04933462      -0.63285357
H        9.38145872      10.34921451       5.10200662       0.24357175       0.08564523       0.02171043
H        5.77211304       4.74903615       3.93214022      -0.61029717       0.48931453       1.21847649
H        8.36084609       6.51987953       4.36044097       0.11411301      -0.04505818       0.18934009
H        0.15550299       5.29412823       5.82766319       0.09808090       0.23579506       0.48265497
H        9.23621521       1.03436665      12.06867706       0.76043343      -0.40723121       0.39472369
H        8.63564408       1.00639358       6.21831632      -0.21561303       0.23102744       0.16332324
H       10.43347146      11.98425397       6.44500372       0.66194321      -0.52438285      -0.32929565
H        5.98404572       7.86120426      10.58370430      -0.46276954       1.07927004       0.62654895
H       11.48074149       7.53072744       4.86270744       0.46151123      -0.24768106       0.28210038
H        0.08910298       5.35221159       1.32880313       0.43930771      -0.18823783       0.11425424
H        6.68036321       8.31629655       6.45722486       0.98144357       0.41358514       0.76941194
H       10.75872734       9.03692855       9.31945880      -0.40105907       0.17410389       0.05840089
H        2.52602418      10.42720398       7.87045509       0.03851098       0.01682417       0.00000194
H        7.05601518      11.34649503       4.85053797       1.04196567      -0.13473033      -0.25108510
H        5.23036571      11.34822842       2.83314612      -0.39195584      -0.22065773       0.32045553
H        9.27391254       6.89576633      11.62568504       0.47711668      -0.15632403       0.21578702
H        7.49821440       1.72419630       3.35457790      -0.26356907       0.44708319      -0.90632165
H        3.40630654       6.85694731       4.07292916      -0.07865249      -0.37463852       0.17860058
H        3.56790815       5.84186501       8.69254076       0.52884170      -0.77147441       1.49383175
H        9.38693239       4.06183834       1.74379396       0.22377247       0.24439393       0.55427801
H       10.62529844       2.27570751       7.02631500      -0.27372571       0.97271691      -1.28576435
H        2.23956188       2.63559718       2.78132813      -0.70351848      -1.23813233       0.73376541
H       10.91563919       3.38674868      11.53430723       0.62653338      -0.22800180      -0.07877563
H        5.42215053       2.09282513       1.26560531      -0.97147611      -0.33821515      -0.11682330
H        4.62070267       4.20516519      10.28060456      -0.11881810       0.81527856      -0.08288676
H        4.08087137       3.43728757       7.89374490      -1.62324757       0.11077058      -0.63637108
H       10.46191522       6.60696983       5.53876446      -1.13435817      -0.66264974       0.34497144
H       12.29158119       6.28661397       2.64046755       0.62080807       0.16409711       0.00788672
H        8.92799661       5.94430337       3.10388180       1.16553319      -1.74905912      -0.74027877
H        1.14238801       4.64014262       6.93105015      -0.98928033       0.27864610      -1.44672032
H       10.12944056       0.34753742       0.77243777      -0.11167792       0.15224901      -0.70251845
H        8.28591918       0.06245985       7.44727949       0.39427204       0.22622167      -0.44213294
H       11.81908546      11.56202500       5.69862237       0.10376214       0.13620239       0.04006957
H        5.58763237       6.35687547      10.29044366       0.91052725       0.96647458       0.02407927
H        8.01331054       2.39455259       2.02758239      -1.11384553      -0.78848924       0.41107371
H        3.94391600       7.68650768       2.89719966      -0.03748280       0.22116017      -0.62332037
H        7.35668448       9.33376940       7.46503913      -0.25957343       0.41577399       0.11496109
H       10.55873415       8.89087573      10.83039514       0.48849025      -0.70017383       1.25507756
H        2.68465065      11.75336418       7.00803222      -0.45027465       0.65249531      -0.23613431
H        5.59619585      11.19679019       5.09712909       0.82398851       1.43881733      -0.88844768
H        3.97213127      10.64142116       3.50759686       0.62612412       0.15684052      -0.09394635
H        7.82966401       6.70278715      11.18779848       0.04607558      -0.73001499      -0.44534940
H        3.61565558       5.18982034      10.98607161       0.61009055       0.68781482      -0.48629429
H        2.62479763       4.15054804       7.76452006       1.03913430      -0.48990085       0.03644923
H        2.79228779       7.07885865       8.31578334      -0.81875024       1.28721717       0.37229522
H       10.66418651       4.78647392       2.22261520       0.82227548       0.60949469      -0.19939047
H       11.49144562       3.26510312       6.28978526       0.74511554       0.45115518      -0.22134477
H        2.67953354       4.07169851       3.01860706       0.13556978       0.66784522       0.45763430
H       10.09534188       4.33047118      10.80644144       0.73140214       0.43925116      -0.42197050
H        3.91736233       2.51406769       1.43382080       0.47190359      -0.46861215      -0.22931293
H        8.14631709       9.42913609       5.47014975       0.74767750       0.72302103      -0.77277996
H        5.63483457       5.37280161       5.45100414      -0.00111663      -0.60172988      -0.53775876
H        4.27010068      11.70846019       8.94256819       0.15190429       0.67785202       0.54796427
H        6.12312692       2.87209545       7.03303716       0.12622284      -0.20594238       0.01215330
H       10.29039654      12.36870124       2.95684032       0.67617476       0.76652929       0.77010759
H        5.72308087       9.83614995       0.35095237       1.08496273      -0.60313550      -0.58684523
H        2.38900021       2.64278852      10.17519339       0.36275990      -0.00712871      -0.50799610
H        6.31784809       6.73573436       7.75709951       1.12310783       0.12933338       1.62147748
O        3.68935729      11.00439455      11.60715590       1.91867479      -1.16583488       2.41408043
O        4.59181221       2.44839022      10.57399093       0.05661733       0.20585849       0.79980367
O        1.23191011       1.18901487       3.86626779       1.32842232       1.93924133       1.10035822
O       10.51196844       7.92185808       0.02113713       0.73438497      -1.24297553       0.82320145
O        1.18786839      10.58803852       5.02772313      -0.20595880      -0.15040427       0.00918654
O        9.05925789       5.53093852       5.88627597      -1.38182236       1.12302540       1.32607063
O       11.57193482      11.83786430       9.85886367      -0.86035950      -1.59767542       0.23557713
O       10.98201649       1.57329806       3.57973695       0.09597600      -0.23084897      -0.08824588
O        2.73273629       5.20183099       4.32137683       1.58238500       0.12528346      -1.07085819
O        0.02518645       9.54213702       1.68681427       0.20121482      -0.00616087      -1.14761590
O        1.75002142       8.70789977       8.55882625       1.16572622       0.17994527       0.24217485
O        8.57067560       9.05227411       1.81781122      -0.61934808      -0.89500133       0.20920794
O        7.85831950       4.29995913       0.50525134       0.45711427       1.26956858       0.42574934
O        6.07236931       5.90237867       2.19151641       0.92033543      -1.58322014      -0.87208987
O        2.38884060       6.20162498      11.90892112       0.27020116       0.83782556      -1.15786290
O        4.34377135       9.99795085       5.29787048       0.10850053       0.14776148      -0.29617064
O        7.62508961       2.00773632      11.32980509      -0.65500513       0.56535014      -0.48831646
O        8.08461848       5.10398485       8.32203512      -0.25682503       1.02099747       0.34955322
O        1.35664240      12.39703053      11.56721648       0.81347243       0.65350274       0.38475573
O        9.24487401       2.68806972       9.15067348       0.58624580      -0.79446913       0.17837182
O        0.72499702       7.76955889       3.65185210       0.25150736      -0.88895700       1.14091982
O        6.76950547      11.56928711       1.11146735      -0.31979317       0.02089522      -0.42461646
O        4.29180127       7.37274842       1.23358488       0.58189042       0.01546483      -0.53300118
O        2.25139877       0.67177010       6.11238410       0.13193171       1.01163921       0.38809061
O       11.66384666       8.83705504       7.62430175      -0.25981691       0.44375978       0.21941524
O        1.79064761      11.94606072       1.74558016       0.85972498      -0.28879729       0.09287242
O        0.96578991       4.03051007       0.44500290      -1.09004742       1.25389366      -0.10108294
O        7.96964842      11.34013086      10.63521835       0.58423006      -0.50010309      -0.75191238
O        1.23573137       8.82522340      11.43377446      -0.32586696       0.73997746      -0.05689889
O       12.39136278       1.37713836       8.01525461       0.99312181       1.08845295      -1.08053763
O        7.00242542       2.26151618       5.09000468       0.61987301      -0.72002717       0.31894284
O        7.08250943      11.56088571       8.02905790      -0.17722701       0.15096534       1.21847792
O        8.57488254       9.97724543       4.70972270      -0.77382134      -0.43652815       0.41303961
O        5.35736009       4.62398830       4.84394315       0.71347496       0.29403724      -0.61957165
O        4.79728253      12.28899189       9.56998405       0.04263529      -0.28492810      -0.77120428
O        6.13660887       3.25317154       7.92772568      -0.25161798       0.04157406      -0.29400858
O       10.08903454      11.64620235       2.36954601       0.27424638      -1.88874438      -1.27562640
O        6.20876669       9.10684653      12.29863551       0.05489837       0.46993335       0.73760674
O        1.43183535       2.66998616      10.29916540       0.25040558       0.17296204       2.25394093
O        5.71970972       6.61452500       7.04966015      -2.28849600      -0.21075078      -1.52688423
O       11.33936274       6.97903772       5.66188005       0.88152501       0.54904064      -0.43339220
O       11.89686057       5.90570402       1.83625828      -0.92367045       0.25559034      -0.39488685
O        8.43781395       6.68879977       3.39982335      -1.29976963       1.57783145       0.57690183
O        0.73379066       4.52276741       6.02377041       0.27937589      -0.19559024       0.93407257
O       10.17335700       0.81828084      12.32200249      -0.52335045       0.21022639       0.19164785
O        9.01234147       0.65969461       7.04212880      -0.11760101      -0.47871979       0.41084167
O       10.97450711      11.23695585       6.04439065      -0.84196952       0.19733950       0.45319392
O        6.32750080       7.06902339      10.19150106      -0.33103001      -1.94179468      -0.54758665
O        7.26547409       1.83549451       2.39034933       1.26235283       0.47861835      -0.14655152
O        3.53333664       7.77537604       3.78204938      -0.11792706       0.33657248       0.82802631
O        7.56163679       8.69722351       6.76737157      -0.93730108      -0.92676814      -0.59426178
O       10.26141468       9.41255260      10.09501385      -0.09738533       0.54488757      -1.61415888
O        3.15230003      11.13269807       7.59148935       0.47527543      -1.06461220       0.49043500
O        6.26277423      11.88169542       4.70564571      -1.41588345      -1.09079750       0.86744606
O        4.35151579      10.95323744       2.66039937      -0.44365416       0.06809386      -0.74277547
O        8.67147810       6.17493721      11.32785655      -0.52098539       0.89086267      -0.28408129
O        4.38138483       5.18279862      10.33929749      -0.34418825      -1.38568736       0.17183729
O        3.12319268       3.33301406       7.53628180       1.12229643       0.11518574       0.63332133
O        3.22706730       6.31454250       7.94209786      -0.07888165      -0.46280524      -1.48134624
O        9.94224101       4.23170366       2.55229380      -1.25706864      -0.90825243      -0.30886210
O       10.58270111       2.95581142       6.27626584      -0.43826016      -1.38493696       1.07987201
O        2.70718130       3.34846342       2.36169435       0.53304544       0.36922718      -1.11080239
O       11.03031150       4.00414143      10.78209907      -1.32228169      -0.17978370       0.72231342
O        4.50495267       1.87227169       0.93417818       0.86876944       0.78486543       0.31506558
192
Lattice="12.429 0.0 0.0 0.0 12.429 0.0 0.0 0.0 12.429" Properties=species:S:1:pos:R:3:forces:R:3 energy=-934.7746518862499 pbc="T T T"
H        5.87139978       0.94124925       2.11899134       0.22082928       1.42624528      -0.43390254
H       10.55802062       7.29325466       0.16897954      -0.62387800      -0.57979517       1.07482291
H        0.60178203      12.00434513       3.97532927       0.19935644      -0.58064358       1.18495321
H        0.65194858       7.51524293       2.05050101      -1.41005203      -1.71995948       0.26584002
H        5.87708342      10.73651155       7.87046992       0.12671766      -0.51539710      -0.01553229
H        8.40710255       5.25061302       5.38982944      -0.47622736      -1.25902469      -0.15747657
H       10.86369535      10.80888271       0.60137535       0.36371057      -0.06282232       0.63261104
H        9.79475951       3.35276489       2.50741014       0.30839067       0.20460827       0.08106127
H        9.52258885       5.37203157       1.19923600       0.22737904       0.69209617       0.34294908
H       11.64005289       5.55930335       8.01261825      -0.49122616      -0.32669759       0.46398360
H        3.13471143       8.34780154       6.73516632      -0.80884359      -1.53844175      -0.90631382
H        7.22197367       9.41847156       8.76276731       0.06109653      -0.23531243       0.12335955
H       10.85531720       7.55155500       2.54114868       1.50765021      -1.24034787      -0.55103284
H        9.51555653       7.17976695       6.09532344       0.12566094      -0.01284581      -0.63536132
H        4.70530044       8.20759692       2.53910243       1.05199936      -1.17706025       0.15524780
H        9.95153845       8.71616951       8.36193601      -0.19000283       0.75311088      -0.58757692
H        0.10464800       0.24585194      10.69257483      -0.80755967       0.49644618       0.32617806
H        2.50473248       3.21163472      10.66835287      -0.67212003       0.71982844       0.57679631
H        3.00632265       0.66518075       9.88690716      -0.74015502      -0.01919725       0.99203294
H        2.28997624       2.71263331       4.01193090      -0.05183053      -0.44736231      -0.88838716
H        1.32344998       0.27154146       0.34843520      -1.10605194       1.22103658      -1.25710483
H        7.65538452      12.29920406       4.81514482       0.44088780      -0.28132957      -0.18849301
H        7.48412728       6.56674849       7.58981183       0.45713760      -0.03613006      -0.07677549
H       10.04459075      12.31519619       4.01126108       0.30300160      -0.73946437       0.29436255
H        1.04129537       8.00015040       8.00466838      -0.24791720       0.39889358       0.05036848
H        3.75928105      10.80095562       3.96083234      -0.48741703       0.94262617       0.07614539
H        7.01700971       6.13401779       3.75065755       0.39300248      -0.01700796       0.50763568
H        7.15666147      10.93826259       2.67526401      -1.65667706       0.89025789      -0.63309965
H        1.63602553      11.76557714       8.72691186      -0.34951651      -0.48229656       0.55337401
H        3.31541018       0.87357155       7.84165911      -0.19835062      -0.40864107       0.02909284
H        9.92424436       1.26520138       5.76292947      -0.47951474       0.87882447       0.00248755
H        1.68322283      11.59096783       6.50009099       0.11540451       0.03374117       0.15781184
H        4.82369222      12.33353912       2.56496577       0.27807643      -0.06794935       0.02640783
H       11.56498389       8.46006123      12.14602709      -0.38739197      -0.38313309       0.27034762
H       12.20234851      11.54756594       2.69780033      -0.19532440      -0.45613071       0.04763536
H        0.36482595       5.95490315       2.38723202       0.44269361      -0.50902023       0.79842536
H        5.86049628      11.70595327       6.66677259       0.12346988       0.05010768       1.02783732
H        7.44693806       3.91338963       5.62197928      -1.46591326      -0.42299135       1.17907833
H       11.09786091       9.65003658       1.56178172      -0.20007290      -0.42327928       0.67265466
H        9.01702432       4.21436533       3.46656363      -0.04753033       0.12381677       0.42602670
H        8.43508293       6.22653547       0.55298534      -0.05051289       0.12650047      -0.08584598
H        0.70391716       5.52132453       7.47648090      -0.93027023       0.07135053       0.00248504
H        2.75016750       6.72662479       6.30616722      -0.03606227       2.06522612       0.42657372
H        6.47378276       8.24944222       7.99364889      -0.54816265       1.69941146       1.11352408
H        9.41622688       7.95331373       2.24431353       0.00467036      -0.31090862       0.17958206
H        9.66269212       7.15038609       4.47119971      -0.37229552       0.28472937       0.50677516
H        4.02570693       9.13807129       1.60170755      -0.28317625       0.59676370      -0.11268523
H       10.08721615       7.37702351       8.98693795      -0.44790208      -0.40530905      -1.33665201
H       11.30799140       0.79602978       9.93154813      -0.12620721       0.11170197       0.87353750
H        1.30902648       2.41879766      10.35920224      -0.24264358       1.82973013       0.99486056
H        3.12150572       0.61361561      11.39054591       1.60450488      -0.89188472       1.99015707
H        1.10993260       3.58220013       4.61583835       0.87508414       0.07797652      -0.14560832
H        1.60609323      12.19842510       1.69022263      -0.02690079      -0.42603802       0.46549338
H        6.37256250       0.23526939       4.05179044      -1.48960508      -0.71448075      -3.07603699
H        6.26183342       5.93473736       8.27241018       0.16828033       0.82491365      -0.68596850
H       10.96297237       0.78081371       3.19534568       1.22133135      -0.03190444      -0.05819514
H       12.04304668       7.83215259       8.36547113      -2.34116653      -1.92877776      -0.32014985
H        2.60763953      11.80791171       4.40131220       0.72860548      -0.47443450      -0.34814782
H        6.31033094       6.55058036       2.52135603      -0.02424322       0.22667133      -0.99103117
H        8.62528295      11.20202562       2.88843212       0.49793241       0.31060934      -0.11294468
H        1.35846735      10.29928788       9.15085084      -0.88927018       1.36198692       0.08619364
H        4.35228227      12.19092322       8.03889745      -0.66228946      -0.45218329       0.30551303
H        9.09575986       2.66237096       5.91674532       0.40092451      -0.54330341      -0.15140359
H        0.50446517      10.84787999       5.85138400      -1.05638772      -1.14781328       0.23122774
H        4.69479067       3.79657098      11.95346121      -0.00567121       0.17013720      -0.34278597
H        8.81692041       1.88928468       0.48652916       0.76011355       0.33678510       0.34698655
H       10.52268062      10.27748404       5.06256202       1.15347152      -2.76260082      -0.30381113
H        5.59258442       9.20130997       5.70242264       0.24217673       0.20612212      -0.29377412
H        3.13448684       4.71480270       1.87098206       0.02456099       0.95401739       0.34603639
H        5.63711129       2.80125165       9.81495303      -0.53884576       0.48259032       0.06720810
H        4.51065409       5.52251394       5.37544501       0.38355154       0.32410584      -0.04664488
H        6.40418032      12.20258940      11.32209036       0.87754960       0.71355858      -0.71023979
H        7.77065723       9.80950985       4.50028201      -0.63002918      -0.27666749       1.22400248
H        4.42427540       7.11540377      10.63025725      -0.77387216       0.10338956       0.77329072
H        9.39320007      11.93237749       0.05982921      -0.04089027      -0.62395029      -1.13299754
H        0.22366277       8.48300533       5.37064347       0.40969106      -0.38591576       0.04123236
H        9.57237049       4.78711892       9.33904427      -0.05758324       0.06987141       0.03792904
H        8.14090453       3.13654318      10.02082920      -0.14108517      -0.54977470       0.15284180
H        1.86805929       7.80841248      10.69575089      -0.48645647      -0.70564163       2.70470580
H       12.15870340       4.98820753       5.38077475      -0.60131095       0.36274927       0.88479596
H       10.03928486      11.45103818       8.42382851      -0.63953650       1.15804197       0.46770776
H        8.66133015       9.66250355      11.03802247      -0.34096703       0.01187415      -0.06888052
H        2.85957743       2.61725185       6.34171072       0.50871867      -0.03087685      -0.28657683
H        4.89892999      10.55110856      11.76519508       0.42471585       1.20327076      -2.21212283
H        4.21916531       8.75101845       9.07257790       1.20325886       0.81771965      -0.36053072
H        7.18963201       8.94099034       0.23004146      -0.48934620       0.10434646      -0.09787249
H        9.55144717       1.25507065       7.99180617      -0.08812277      -0.42472156       1.61317984
H        6.57319372       2.38231848       7.32101867      -0.48656940       0.67556747      -1.38968406
H        1.25413055       9.70590139       2.03291922       1.06029022      -0.52742628       0.48767454
H        0.76637434       4.34794717      11.94390470      -1.54835828       0.33027860       1.94050380
H        2.08045453       4.52394443       9.13628148       0.64288303       0.47304574      -0.97957028
H        5.92816545       3.99401072       3.24143696      -1.17088609      -0.56478534       0.21430082
H        2.53667440      10.64791050      12.25614512       0.67870715      -1.11058366       0.62903915
H        3.11589458       1.30530397       2.12868756       0.17414031       0.09118648       0.08243014
H       11.29088275       3.54504129      12.23289756       0.50873704       0.90963473       0.47918272
H        6.08785515       6.00434951      11.86481348       1.76151991      -0.75682317       1.50397632
H        0.67290652       7.26985109      11.58397969       0.69270907       0.14490123       0.39559654
H       11.39986738       4.71549060       4.01378938      -0.54025080      -0.17298626       0.05824107
H        8.03970488       8.61147515       5.37280620       0.22776739      -0.62488440       0.24351016
H        3.73381631       6.93221521      12.07785417      -0.65443384       0.03315440      -0.09379406
H        9.94235715      11.26599008      11.06180268      -0.46205277       0.49312657       1.89419508
H       11.93861325       8.93304214       6.64946452       0.22761085      -0.46165617       2.40442022
H       10.70224111       5.41079353      10.04161715       0.37323044       0.17778844       0.39642478
H        9.40259964       3.42395276      11.12569917      -0.41807170      -0.27440539      -0.68809589
H        8.80917143       0.88566076       9.41831992       0.84594391       0.00053405      -0.64565657
H        6.57117064       1.70563336       5.89228026       0.10934241       0.96959558       0.19905034
H       11.33055848      10.70595785       8.40904212       1.17119372      -0.05374459       0.22782264
H        9.42244006       8.41649345      10.90324801       0.96956397      -0.85155011       0.26877246
H        4.40498584       2.41481263       6.75171786       1.36340156       0.14122477      -0.95014658
H        5.59207493      10.54356925      10.27354654      -0.76712648       0.54080022       1.08375763
H        3.21571637       7.66333327       8.66375144       0.12008662       0.94171446       0.96407320
H        5.72017203       8.79408099      12.20671467      -0.05402755      -0.61204885      -0.28492874
H       10.93975650       2.13414893      11.72953658       0.30732179      -0.38796189      -0.27667226
H        7.40731554       5.24099869      11.54203805       1.13885179      -1.04252513      -1.45932170
H        2.35844935       8.70314533       2.79648663       1.66131207       0.68495161      -0.20057103
H        0.19442199       5.47394285       0.50912051      -0.01648183       1.95583706       0.50434238
H        3.05411655       4.35708055       7.90549059      -0.10966787      -0.29317446       0.04781507
H        5.60625573       3.00235812       4.38473151      -0.50057794       0.15570807      -0.76448643
H        2.37881476       9.04521711      12.41051461       1.13912271       1.30091053      -0.21328434
H        3.84719997       2.67062025       2.60250684      -0.54637326      -0.90587110      -0.54492707
H        3.34734057       4.57438612       5.12246412      -0.48161280       0.86384701      -0.21169122
H        7.54139404       0.77824554      11.81162962       0.06522887       0.00766479       0.66637453
H        3.66277244       2.73697656      12.25089827       0.47206078       0.08514253      -0.75773491
H        9.23910481       0.95452651       1.71260794       0.69745393       0.12855579       0.77844933
H        9.61436195      11.15492839       5.85065025       0.72482009      -0.07539712      -0.47894023
H        4.49274630       8.83972635       4.69857961      -0.03390008      -0.17989289      -0.20658664
H        3.51435255       5.89849877       2.81978413       0.26218848      -0.22491574       1.17436327
H        6.47995895       1.61609246       9.71940586       0.40442638      -0.78939132       0.22443510
O        5.77095595       0.02612126       2.32405978      -0.65335982      -1.37856058       0.32747738
O       11.17220092       7.59310706      11.92628179       0.95124485       1.09160233      -1.85454703
O        0.26418278      12.26736646       3.13064207       0.09544698       1.20028539      -1.44479035
O       12.36258898       6.72058129       2.02005001       1.12090203       2.47019654      -0.75158308
O        5.83641440      11.69052262       7.66667489       0.10129103       0.65786837      -1.42818802
O        8.16274811       4.29211204       5.13692175       2.06579468       1.89544221      -0.99000844
O       11.37538145      10.56142738       1.43342137       0.21042386       0.06817601      -0.74125285
O        9.82872514       4.23588326       2.92610401      -0.10640014      -0.61621324      -0.60633567
O        9.33060997       6.30866818       0.95654155      -0.40697009      -0.65791796      -0.34113017
O       12.18045200       5.68338682       7.22411771       1.62702604      -0.00588376      -0.69704486
O        2.40620385       7.64845266       6.64245777       0.89765987      -0.32911609       0.20375911
O        6.32587589       9.16895740       8.47733344       0.25466974      -1.46140471      -0.69554625
O       10.09663540       7.96111269       2.93444626      -1.22122068       1.54459408       0.91853536
O        9.03323786       7.02215092       5.24600618       0.22856271      -0.40074857       0.41355668
O        4.12183465       8.94672071       2.55491575      -0.49374353       0.62811442       0.09125284
O        9.97648741       7.78804673       8.08375608       0.01249551       0.05237581       1.23200643
O       11.68002941       0.74697823      10.85678380       1.04163023      -0.83270727      -1.22242230
O        1.51376954       3.36826275      10.69391316       0.73624108      -1.87191359      -1.60919885
O        2.51985932       0.90354992      10.75367422      -0.76224040       0.24592011      -3.18156097
O        2.06414148       3.28065803       4.74644004      -0.82725070       0.25810553       0.99154776
O        1.91295954      12.10787831       0.76743250       0.91562408      -0.46840225       0.97229814
O        6.83697634       0.35988421       4.83341758       0.93240459       0.93872525       3.63363205
O        6.51748091       6.61622954       7.59214613      -0.33747585      -0.99590084       0.57829406
O       10.04403883       0.55801761       3.30848289      -1.52117159       1.10276396      -0.67698031
O        0.28990595       8.44913081       8.47232497       2.85801614       1.39502344       0.23184314
O        3.39733447      11.71512572       3.81051025       0.02413439      -0.35157260       0.09323858
O        6.14016298       6.11109142       3.35198748      -0.14176275      -0.19132832       0.36965079
O        7.96935183      10.50204093       2.85047053       1.24022957      -1.24295773       0.46711826
O        0.92706429      11.21337274       9.15547717       1.03147732      -0.96257423      -0.48750648
O        3.36677671      12.38295434       8.23106367       0.32916979       1.02771801      -0.40361974
O        9.23646981       1.75180584       6.27362793       0.39778312      -0.45480717       0.25437264
O        1.21427247      11.44940569       5.66581741       1.02870801       1.10009527      -0.23416776
O        3.56545693       5.54815983       5.18335526       0.01539783      -0.85120573       0.14338182
O        7.16234257       0.40159297      11.01672459      -0.92408276      -0.69395579      -0.37830693
O        4.18360412       3.10931860      11.48222738      -0.08120966      -0.08863366       1.37369064
O        8.54065022       1.19015071       1.09305522      -1.29301422      -0.28973962      -0.94659605
O       10.26538702      11.16493908       5.10428281      -1.95181890       2.64894241       1.13080956
O        4.66135628       9.39384754       5.46789837      -0.20702369       0.01149657       0.62782521
O        3.22457049       5.69649752       1.93693255      -0.37959603      -0.73935546      -1.46309778
O        6.32386153       2.44607188       9.23878258       0.20805946       0.15936467      -0.22933861
O        1.63112784       7.52056331      11.68539275      -0.19151645       0.57802530      -3.12345427
O       12.24999545       4.91367783       4.42828728       1.03503629      -0.36567410      -0.76588244
O        7.53688968       9.43835259       5.42844546       0.31015112       0.92380279      -1.40867998
O        4.51517462       6.76056011      11.54568299       1.55540669      -0.27748634      -0.62785178
O        9.62598711      11.08170508      12.00803380       0.21344386       0.56108733      -1.14451694
O       11.93653879       9.01421568       5.72428715      -0.58257596       0.85827128      -2.60610693
O       10.24022326       5.51065319       9.20054444       0.06250564      -0.54378052       0.29632497
O        8.70686971       3.77676955      10.46418750      -0.04421402       0.99163701       0.23774036
O        9.69044857       0.88680686       8.95285430      -1.06114690       0.41855088      -1.12619136
O        6.39526630       2.60747455       6.33786685       0.06366945      -1.65999097       1.25856182
O       10.48256359      10.74255090       7.97004501      -0.39370209      -1.14165906      -0.51588684
O        8.62100753       8.80817191      10.56235368      -0.73434945       0.81135931       0.04837825
O        3.51246202       2.45554219       7.06249579      -1.88710635       0.18579345       1.07303782
O        5.11008536      11.13178088      10.92689656       0.19183429      -1.54613748       1.03149925
O        3.42559325       8.34215166       9.38862998      -1.25685746      -1.88944886      -0.83884252
O        6.27196598       9.19870237       0.45556050       0.53748742       0.03036718       0.42737374
O       10.53610429       2.95453589      12.05909097      -0.89815931      -0.57477259       0.24698950
O        6.95738293       5.56434372      12.30159557      -3.21636396       1.61514173      -0.04843801
O        1.46926491       8.88046490       2.52203218      -3.17524613      -0.05239709      -0.39473219
O        0.08273944       4.56722286       0.29329401       1.64980514      -2.52000708      -2.57474566
O        2.53127023       5.02441146       8.38273892      -0.68092130      -0.19284697       0.97274103
O        5.24335229       3.30693072       3.51237930       1.57255293       0.41262672       0.54139381
O        3.06650265       9.80935404       0.00211280      -1.47168397      -0.66980040      -0.25084316
O        3.07724022       2.27495917       2.07970605       0.59691327       0.81609614       0.33157641
192
Lattice="12.429 0.0 0.0 0.0 12.429 0.0 0.0 0.0 12.429" Properties=species:S:1:pos:R:3:forces:R:3 energy=-937.5103088098159 pbc="T T T"
H        6.42834961      10.58360962       8.78563354      -0.05743296      -0.38717850      -0.27476897
H        5.13108223       2.21892387      12.12892952       0.55388705       0.31639703       1.56759970
H        0.55096071       1.96994174       1.56402907       0.22533101       0.69367587       0.66980582
H       10.28968245       8.87880557       0.56569839      -1.11602796      -0.03506055      -0.17767664
H        2.33521494      12.29466376       5.14751404      -0.76561528       0.30773354       0.81133507
H        9.94324566       5.93714334       5.87839746      -0.10582587       0.61927828       0.07159042
H       12.25205323       9.51178395      11.77085579      -0.52099229      -0.04976729       0.55170434
H       11.49203497       3.22771403       2.50684879       0.60272606      -0.31976456       0.06725703
H        2.26103307       7.19877347       3.90543841       0.08869873      -0.11332477      -0.28998442
H        0.21534125      11.06525357       2.14266598       0.00541770      -0.45586553      -0.02070630
H        2.50864481      10.50162215       8.15774158      -0.44247153      -0.11300192       1.19407130
H        8.91701739       9.48096908       2.42780745       0.93988269       0.96378840       1.64095237
H        7.81011081       6.54351610      11.33164666       0.42105827      -0.23894434       0.78290688
H        6.34989321       3.77922936       0.52685714      -0.04316861      -0.01460455       0.88898714
H        3.01813645       8.23744469      11.08293648      -0.84499563       0.34648489       0.13349080
H        6.36141406       6.43592506       5.02536389      -2.30234088      -0.38377279       0.60835628
H        7.95840389       3.45615128      10.66680820       0.11081849       1.31595984      -1.75984073
H        7.89078072       4.55454306       7.68137741      -0.67625316      -0.17101352       0.51513617
H        1.75144346       0.53123028      11.73436017       0.50251535      -0.18619524       0.25730454
H        9.91964345       2.00613533       8.41908350       0.30048808      -0.20687201       0.40159832
H        1.16501756      10.18670773       5.99984362      -0.71042417      -0.32101570      -0.53574407
H        8.61320653      12.34464276       3.04679302      -0.96838850       0.00606679       0.87606457
H        5.66951997       6.48311537       1.36307646      -0.27631127       1.50778543      -0.63355019
H        3.74350645       2.80873467       3.59903224      -0.64501267       0.06915976      -0.24137490
H       11.72585183       9.59509530       7.60842257       0.09897832      -0.24569327      -0.36287263
H        2.51407999      11.84326646       1.12337868      -0.13995805       0.12499024       0.52380839
H        1.81902195       5.22606123      12.27624593       0.02159308       0.38420507       0.28922650
H        6.97563904       0.57629176      11.85658339       0.49559885      -0.93591134      -0.09973038
H        2.71911870      10.55012215      10.68640815       0.64807623       0.21426504       0.19021349
H        0.63243408       1.92267291       9.14926589       0.17118011      -0.22053334      -0.94517660
H        7.44390805       1.48656849       6.43014131      -0.09444779       0.24987223      -1.94319684
H        8.13893431       0.29197784       9.05215789      -0.13406939      -0.25088425       0.10096558
H        5.01332860      10.99693660       8.55497026       0.02968567      -0.21051918      -0.19989120
H        4.21381884       1.09068952      11.56573039       0.55797884       1.45250470      -0.05993975
H        0.69513337       1.56839346       2.99242715       0.07215663       0.54197991       0.54508703
H       11.15591649       7.71509598       1.22382816       0.17981266       1.34012716      -0.65923345
H        3.44517910      11.35971596       4.61976076       0.55012698      -0.72375106      -0.18609146
H       10.25201106       4.46359453       5.82617271      -0.61355523       0.26277517      -0.29391996
H       11.92566283      10.89251316      11.05562413       0.00016445      -0.53060252       0.58529889
H       10.59938588       3.85269715       3.64302612      -0.18888943      -0.98279449      -1.43309197
H        1.47819553       6.45041290       5.00187763      -0.03012755      -0.35145531       0.17515937
H       11.51345444       9.90006179       2.11862305       0.88860555       0.82917413       0.49746377
H        3.51749719      10.06749532       7.13633761      -0.21731583      -0.08675129      -0.33791124
H        8.16023009       8.23041188       2.05690942       0.54246208       1.33567574      -0.60067953
H        7.96275977       7.44611703       0.10056322       0.09598522      -0.26705495       0.00179192
H        6.33222666       3.55587324       2.10496986      -0.36580885       0.18072327      -0.97509629
H        3.13953218       6.73313804      11.87926905       0.15712320       2.15951407      -1.25631579
H        5.23770970       5.39885703       5.61536344       0.19133127      -0.63945742       0.06059304
H        7.81186568       2.00018439      11.00288711       0.32005621       0.47029114      -0.06928582
H        6.71609675       4.78532156       8.82501646       0.69397729      -0.44173297      -1.24929104
H        2.82083223       0.06254070      10.72115860      -0.01799074       0.10067281      -0.23931933
H       10.87562857       3.00298000       9.22126263       0.33409120      -0.60426066       0.21958651
H        0.27284978      10.20008484       4.64163578       0.26972365       0.27163721      -0.66968576
H        7.08380674      12.15705195       3.06276235      -0.61355000      -0.00184939      -0.64732908
H        4.77380660       7.29399167       0.34525339       0.46367702       0.27175015       0.20792259
H        3.94334107       1.25507800       4.11445276      -0.19451250       1.05043289      -0.19543004
H       11.55831927      10.02828210       9.06943713       0.14721045       0.36508626      -0.89413825
H        2.13749018      12.03220680       2.67633149       0.63237568      -0.18243585       0.29799514
H        2.77151776       5.15270330       1.10046001       0.40084609      -0.60266290       0.62981886
H        6.81189260      11.51424215      11.70553784       0.24164849       0.05550242      -0.14405131
H        1.53476172       9.79548365      10.33795161       0.23272308      -0.33570668      -0.34576473
H        0.33477656       2.25252655      10.59921741      -0.14939010       0.41353937      -0.31672752
H        7.26025695       1.29354534       4.82104669       0.07067776      -1.46409622      -0.60623113
H        8.84806299      11.30449468       9.00001514      -0.38652734      -0.37741140       0.12644299
H        4.31601984       0.89041056       8.85420288       0.07853252      -0.20841465       0.15889348
H        6.58054320       2.49546660       8.64792004       0.25981890      -0.04746599       0.01064618
H       10.90610694       0.18234793       2.47637625       1.15043543      -0.65915921       0.82986083
H        6.88531842       9.80112354       1.67357772       0.76964435       0.22228199      -0.03684889
H        0.89254667       4.36253428       9.94498915       0.09859579       0.80627938       0.20835437
H        5.26018201       7.33652913       7.38548562      -0.76760365       0.01388013       0.43464014
H        9.70372674      10.61640094       4.64884088      -0.51514217      -1.08706807      -0.19202165
H        5.99257456       3.42770941       6.37611135       0.42838410      -0.17003848       0.14074693
H        8.42907490       7.22418480       4.38561641       0.01841892       0.08726041       0.21152618
H        1.33936082       6.08054309       7.32243463      -0.00478413      -0.03231585      -0.25908462
H        9.97599423      11.96566761      10.94685742      -0.02211953       0.41872952       0.22823364
H        9.64821866      11.93022106       6.91649612      -0.20107429       0.19071181      -0.12071384
H        0.05852568       1.88110952       5.53514507      -0.50200072       0.94851717      -0.09706747
H        5.83809914       6.62302725       9.39799860       0.05653330      -0.71696480       0.44649951
H       11.61629543       8.53511717       5.43110468       0.47955174      -0.07061562      -0.03138663
H        0.30869645       6.04183397       1.57603734      -1.85627324       0.29944182       0.23183286
H        7.38796107       7.95848841       6.79376217      -0.61432485       1.31800358      -0.94318060
H        8.88012191       9.08478073      10.23877502       0.04212715      -0.14837969      -0.09785465
H        1.89159447       1.99304838       7.61389185       0.43524502       0.42140146      -0.13829965
H        7.73769668       9.58537916       4.88764385       0.56194063       0.20782197      -0.23383630
H        5.49316842       9.98899930       4.83170911      -0.57311433      -0.51685294      -0.83408828
H        6.14663140       9.53333826      12.15883315      -0.53448046      -0.68203527      -2.04814777
H        8.65135142       3.39245658       2.65693709      -0.64158694       0.72652866       0.96208530
H        4.43773767       6.89516763       4.06390012       0.43258521       0.00824899       0.14386197
H        3.02992695       7.20902063       8.60502891       0.40588597      -0.64495309      -0.25398014
H       10.11197969       3.58417821      12.29416820       1.13399234       0.65058708      -0.04571130
H       11.55422687       3.14265270       7.02784019      -0.45226344       0.00661727       0.07442852
H        1.95968974       3.77123317       2.74587610      -0.56192602      -0.72306181      -0.14581018
H       11.84538726       0.95633911      12.06634143       0.04676119       0.55915349       0.13548627
H        5.38921733      11.99882964       1.59958114       0.73049998       2.65583879      -0.05371593
H        4.06700229       3.30578112      10.66842564      -0.00252547       1.13599104      -0.53682963
H        3.67378526       3.65962538       7.14590755       0.53840459      -0.28264473      -0.84770308
H       11.65394191       7.32915363       4.48883769       0.68223278      -0.21202063      -0.43904292
H       11.44884502       5.90753912       2.58053185       0.74075495       0.31153046      -2.09739468
H        8.14074643       5.81325442       3.88456942      -0.18836758       0.48333672      -0.36163418
H        1.69578190       4.65309390       6.93879453       0.74395321      -0.24653451       0.25135039
H        9.90256373      12.19647821       0.04565265      -0.30794514       0.15204672       0.51406699
H       10.87363919      11.37287160       6.27011284       0.04720946       0.01249433       0.00871804
H       11.96132597       0.56936573       4.99882849      -1.29014761      -0.72958044      -0.08166150
H        5.16376216       5.42713416      10.09193797      -0.11159009      -0.35945250       0.17885302
H        8.08290807       3.81346469       4.08770415       0.23274285      -0.70574806       0.45970581
H        4.23684754       7.40903426       2.55725494       0.46388969      -0.03439717      -0.44199321
H        7.93231171       7.71009516       8.21385001       0.04570895       0.04301517      -0.67309148
H        7.35952975       9.31453438      10.08435259       0.72083952      -0.41707107      -0.12702259
H        0.90731717       1.03509219       6.95885174      -0.95614066      -0.61778184      -1.62220709
H        7.11215261      10.19243019       6.15803094      -0.05525296      -0.50865983      -0.38853486
H        4.35946243       9.16955125       4.01809481       0.07062129      -0.80862785       0.09147083
H        5.32696814       8.70454904      10.99558745       1.03667303       0.82117769       0.53177384
H        3.21814256       4.64310566      10.68799007      -0.39713596       0.02977031      -0.33867887
H        3.21779966       3.50211258       8.54655038      -0.07961849       0.43319853       1.22202669
H        1.90168363       8.09279706       8.77626667      -0.61625303       0.14234326      -0.07585333
H       11.14229205       4.71780494       0.39452003      -0.32555018      -1.12043308      -0.74350118
H        0.01222592       4.04218914       6.21224807       1.44015027       1.84992720       0.16519270
H        2.57543595       4.88283557       3.56413342       0.12658811      -0.01540731      -0.11013108
H       12.08450322       2.50179910      12.26673104      -1.25887029       1.50994487       0.17244912
H        5.01438620       0.96825031       2.30363419      -0.02716015       0.39992667       0.09263807
H        9.91787176       8.98403712       4.59131016      -0.11939203       0.93008290      -0.38890973
H        4.94835635       2.90543655       5.27723754       0.24266022       0.38720375       0.55311666
H        3.23366926       0.05272421       8.16895664      -0.20267911       0.15056855       0.60558077
H        5.99618469       1.68153816       9.88461962       0.75659120      -0.11496735      -1.46941345
H       10.19890061       1.64221497       2.46396101       0.51838517      -0.68818137       0.12145633
H        5.54389083      10.03134953       2.25626706      -1.74137808      -0.81766798       1.96254924
H        1.21610574       5.93729607       9.87712591       0.43672229       2.08984413      -2.07228137
H        4.95291532       8.51223276       8.34368561       0.21847571       0.55191744       0.06035865
O        5.65638964      10.31059855       8.25032204      -0.07405202       0.85955128       0.42530551
O        4.71931293       1.93731695      11.32147681      -0.95704872      -1.81743533      -0.92264365
O        0.61467773       2.39823483       2.47855886       0.03938785      -1.15114359      -1.38816249
O       11.16203740       8.68826242       0.89118587       1.19509336      -1.24626720       0.63869860
O        2.82485429      12.06431014       4.36810139       0.32361158       0.42168096      -0.73999828
O        9.57344358       5.12598252       5.50913392       0.74125558      -0.98691266       0.17821159
O       12.18039075       9.95512074      10.91286888       0.53946565       0.31254024      -0.91958886
O       10.56104900       3.36807358       2.75187190      -0.48325605       1.33571342       1.72717478
O        1.50811542       6.57720980       4.03550804      -0.29977940       0.08379345      -0.03781947
O       11.97042526      10.60582424       2.69278256      -0.55911444      -0.15499093      -0.20118880
O        2.61454652      10.42537581       7.21392387       0.58787396       0.04260002      -1.01820948
O        8.46149480       9.12779744       1.67594952      -1.59377368      -2.62469274      -0.72607608
O        8.34497591       6.62362079      12.16845668      -0.64633430       0.41200502      -0.92996846
O        5.74441773       3.69419883       1.30387873       0.47418856       0.13348268      -0.23812213
O        3.56834353       7.47267216      11.26600444       0.81338246      -2.47810750       1.33919419
O        5.36555678       6.32700896       5.35898451       2.08787982       0.85148589      -0.53596781
O        7.93941219       2.88253478      11.40284621      -0.11957135      -1.49380822       1.75307287
O        7.07280870       4.16320176       8.07332962      -0.01378478       0.55668783       0.72787374
O        2.57721565      12.41838890      11.66913220      -0.30638328       0.25833983      -0.66275933
O       10.14571436       2.93147003       8.58587885      -0.51064201       0.68419089      -0.73458309
O        0.32113327       9.89417542       5.55509804       0.28507194       0.09633307       0.96535479
O        7.82994508      12.17385923       3.66275391       1.39749037       0.22025860      -0.39741741
O        5.40430538       7.42943049       1.09893437       0.07415208      -2.02072344       0.22078021
O        4.37848791       2.12540986       3.88964673       0.77414739      -1.52530448       0.45954185
O       11.64428401      10.39013784       8.14333904      -0.20447610      -0.21991519       1.31420778
O        1.81085605      12.06572570       1.76280214      -0.61040928       0.00712880      -0.46209037
O        2.21128958       5.74961717       0.59824267      -0.67482830       0.12688077      -1.00255858
O        7.43823325      12.21973916      11.45114351      -0.91262017       0.74799950       0.61882758
O        2.52138320       9.76751775      10.14982867      -1.26519980       0.31303206       0.23244718
O        0.31769747       2.66221882       9.69226634      -0.12668100       0.17145352       1.02743048
O        7.42250412       1.91460052       5.51912571       0.37798460       1.26089900       2.68456456
O        8.97497606      12.25168739       8.85580923       0.45717157       0.51707143      -0.28654793
O        9.37425203       9.75644871       4.24210280       0.31208098       0.01308927       0.19497003
O        5.08240455       3.51244123       6.07680383      -0.88197417       0.17327694      -0.59739590
O        3.70678228       0.14256494       9.03158949       0.31294945       0.01317135      -0.69686903
O        6.47103151       1.56988334       8.98519409      -0.94080595       0.12134660       1.39840423
O       10.22248053       0.71602074       2.10677079      -1.79601089       0.79571722      -0.95468799
O        6.07771068      10.34295300       1.56154040       0.77606575       0.61476277      -2.03506661
O        1.13787441       5.20336947      10.42818347      -0.32332774      -3.10936684       2.31695137
O        4.68813672       7.59853925       8.16300071       0.84985755      -0.49922211      -0.71129344
O       11.05891320       7.81794284       5.05680730      -0.79490545      -0.04501623       0.66963162
O       11.70883313       6.12792977       1.61429511       1.26510951      -0.71715197       1.82030648
O        7.77654600       6.73350116       3.86544739       0.20020358      -0.29509964      -0.02247386
O        1.22794622       5.42896390       6.58596914      -0.49414876       0.46246566       0.14384807
O       10.52518672      12.11305282      11.74569077       0.30861987      -0.17295698      -0.83270784
O       10.05115319      11.84158447       6.02844729       0.55179849      -0.08694150       0.13952103
O        0.33928146       1.02513371       5.18100539       1.51141230      -0.27537541      -0.23819108
O        6.04828310       5.83015169       9.96879733       0.44397926       1.00463002      -0.52803263
O        7.93589661       3.89077454       3.14108637      -0.00264512      -0.13151608      -1.15325956
O        4.00471292       7.56611771       3.48167167      -0.99684566       0.38077750       0.45210150
O        7.83766350       7.31456776       7.31428610       0.77132310      -1.31322419       1.51741617
O        8.21001065       9.18729262       9.54287729      -0.45714258       0.50134386       0.36734857
O        1.35682139       1.19186316       7.76821200       0.90078030      -0.31518553       1.61035864
O        6.98055127       9.47103253       5.49973081      -0.41672016       0.51732699       1.06945707
O        4.69455317      10.05955911       4.22100175       0.34264294       1.41042721       0.53747192
O        6.08884001       9.35385735      11.13238376      -0.96590422      -0.16779029       1.89468542
O        3.91378311       4.19582438      10.17701971       0.07865388      -1.21096145       0.70180535
O        2.86121289       3.47085748       7.65511213      -0.43906827      -0.18054859      -0.48978847
O        2.05090983       7.14718595       8.63627742      -0.17127108       0.52347896       0.04974563
O       11.05691597       3.91194966      12.21579902      -0.96101086       0.42716451       0.69900865
O       11.77268665       3.39242503       6.10491553      -1.37038860      -1.63978441      -0.01455508
O        2.82246921       4.09152086       3.02961050       0.22090938       0.98310624       0.17860672
O        0.10886237       1.66487085      12.16911196       0.91203568      -2.12817894       0.01004831
O        5.55244004       0.61002288       1.57833997      -0.44988716      -2.70186409      -0.30154067
192
Lattice="12.429 0.0 0.0 0.0 12.429 0.0 0.0 0.0 12.429" Properties=species:S:1:pos:R:3:forces:R:3 energy=-933.0543861058097 pbc="T T T"
H        5.42930147       6.10532000       5.04327851      -0.71925686       0.33116708      -1.20538489
H        3.62162265       7.42455909       9.55563786       0.77687178      -0.40743476      -0.14331805
H       12.21834996       0.51806620       2.58824499      -1.30891163       0.23216625      -0.92874643
H        3.46114554       7.59918545       7.07100309      -1.57148547       0.66247305      -1.06098234
H       11.82910739      10.38063568       3.09475859       1.19544141       0.24715693       0.65740030
H       10.82195907       5.06891855       9.21440661      -0.36045414       0.06192703       1.11370564
H        4.34980560       4.39357498       3.51925737      -0.60898827       0.57277296       0.16094262
H        8.35041671       6.43630329       7.11258943      -0.17091795      -1.56005059       0.07958074
H        9.44201492       0.74831594       4.62977631      -1.00084050       1.91169999       0.89111771
H        2.62312481       5.47973928      10.14466921       0.39918043       0.63427357       0.01907985
H        7.65175258      11.89203104       2.22940178       1.36396745      -0.76347471       0.46570859
H       10.77330681       7.61167450       7.68663504      -0.98934270      -1.70862885      -0.53496215
H        0.58465311      10.33463663       6.15950344       0.11029210      -0.13193031      -1.65924964
H       11.15682574       5.18807029       1.98828569       0.94045492      -1.21705954       0.08808138
H        9.71430057       9.98171743       2.01950000      -0.28799732       0.30649642      -0.34940355
H        8.01268104       7.50633221       1.34736353      -0.27185059      -0.94931344       0.27715239
H        0.06861363       6.75361964      11.97041571       1.39791997      -3.40575481      -0.70614863
H        6.33686295      12.19968046       8.17331218      -0.29528454      -0.67287058      -0.00584948
H        9.75560711       4.60749275       7.34609079       0.68456526       0.42920906      -0.26861200
H        1.62893852       2.56342510       8.58175196       1.43187385      -0.27012902      -1.21762571
H        6.19055790       3.96036961      10.67821947      -0.27682746       0.00730836       0.02056805
H        6.12144280       5.70672268       2.25606581       0.42912648       0.42847183       0.53270968
H        6.61637450       2.66375395       7.09167250      -0.62477513       0.39058026      -1.32205058
H        9.56312617       1.81820062      11.64387868      -0.75088784       0.43499352      -0.37552330
H        0.69577435       6.82273634       4.85037933       0.37472400       0.92228520      -1.75893222
H       10.00181911       3.63292504       0.65888306      -0.12721065       0.31646011      -0.45909396
H        4.98784122       9.99861932       0.51791683      -1.18959412      -0.09452674      -0.92633385
H        5.24513252       8.95734500       3.32522666       0.12886511       0.25336051      -0.29740249
H        8.01714978       5.35353546       8.82756225      -0.01956505       0.02142847       0.56948490
H        8.61641036       2.92243851       4.90918393      -2.07488344       2.63163788      -2.36563743
H        0.09071143       8.91549160      10.80215196      -0.38253311      -0.83886241       2.05593642
H        1.51243748       6.53538477       7.03312828      -0.02577850       1.89234684      -0.33896930
H        6.47628074       6.20139839       6.07107381       0.78512735       0.17862975       0.49911531
H        2.21232023       7.60894609       9.41545875      -0.72703025       0.26730096       0.27052210
H       11.21491551       1.37125986       1.69475525       0.00780437       2.37221320      -1.27436860
H        4.65341151       6.56148606       7.05721155      -0.54219630       0.33522965       0.05822480
H        0.79607199      10.93535581       2.75823073       0.75860753       0.09427127      -0.82217114
H       10.02822199       5.52855170      10.52307042      -0.13143058       0.54987018      -0.02135070
H        3.40537932       5.08694241       4.54592099       0.19674770      -0.00481825      -0.49209710
H        8.72597933       7.17863252       5.76425865       0.31253477      -0.55143625       0.00623019
H       10.34348378       0.00367517       3.80383589       0.06881091      -0.63629392      -0.09888794
H        2.25988771       4.03789714      10.14506786       0.87600978       0.33684984      -0.53792177
H        7.09994955      12.23686516       0.85766957       0.03501319       0.89100547       0.16945140
H       10.51132919       9.12574928       7.22406096       0.88830170      -1.86331803       1.58139012
H        0.02980742      10.26517929       7.49906489       1.41773153       0.43007761       0.08645373
H        9.86746979       5.69501422       1.22631231       0.27475254      -0.09115274       0.14595114
H       10.42215841      11.24697946       1.55324158      -0.79684890       0.14021320      -0.21264466
H        7.33959553       8.79231817       0.97130834      -0.82587889       0.46755204      -0.01357472
H       11.67753445       7.44555992       0.59136866      -0.17807475      -0.19918026       0.38142474
H        6.86088435       0.45507255       6.72926032      -0.63806099      -0.60288685       0.84923460
H       11.20748019       4.78775104       6.76335928       0.57866874      -0.69199353      -0.70299753
H        0.21805444       2.66324026       8.76118499       0.17094333       0.28014985       0.89944805
H        7.31570510       3.16402425      11.35666779      -0.09611727       0.22590332       0.20745982
H        6.58733600       6.93739440       3.10557473      -1.27708939       1.85819142       1.04832492
H        5.99467345       3.72049321       6.08539515       0.24005663       1.60482606      -0.12001138
H        9.15972860       1.95696964      10.10284635      -0.28153760       0.23333948       0.52635247
H        1.32249891       7.64917573       3.57946455       0.02128176      -0.36869626       0.39734380
H        9.74852473       3.22180307       2.09363249      -0.61773380       0.08580372       0.42338726
H        6.13190582      10.75070332       1.12136739       0.34946615       0.79006686       0.35349428
H        4.36283116       8.93048940       4.57006804      -0.40403383       0.37428451       0.77189028
H        6.79063890       4.56736881       8.28312896      -1.12234909      -0.11197533       0.19317513
H       10.13044689       2.92672204       5.65711745      -1.83592273       0.13782637      -1.26559407
H       11.77505564       8.79200576       9.44126507       0.40224931       0.03792802       0.38663023
H        0.72197882       7.92886712       7.25278506      -0.57264947       0.21872937       0.27439338
H        3.93280867       0.31951920       8.94217570      -0.18307042       0.24070304       0.36352155
H       10.40122991       0.16609891       9.70952391       0.03848261       0.01125470      -0.89093072
H        3.28771918       1.97537615       5.24107364       0.15949471       0.23032063      -1.70134531
H        2.65840919       9.61448326       6.02446037       0.62880300      -0.16101008       0.03986273
H       11.97024955       2.36860052       5.93196625       0.23116358       1.59655297      -0.66535282
H        8.37799874       0.99600515       8.41703943       0.50951158      -0.25651382       0.32029192
H        7.79151662       5.10303402      12.20513633      -0.76892125      -0.94297394       0.10140781
H        3.59524983       0.69873651       1.21633895       0.17762399      -3.00081020       1.06683339
H       12.15109205      12.34322260       6.98537575       0.90566696       0.03935908       0.42586163
H        6.18238315      10.26211950       8.94815712       0.33464301      -1.01652484      -0.58224546
H       10.03093747       8.04338396       2.60580029      -0.97504777      -0.73718972      -0.25913245
H        3.33506803      10.56981992       2.45335041      -0.19067854       1.55336706       0.60064617
H        4.37241824       4.46755647       8.78025081       1.37998367      -0.72481615       0.19472227
H        9.01831972      10.07110006      12.20955341       0.41645234      -0.03325690      -1.01122905
H        0.06816496       3.35521295       2.09666499      -0.04973199      -0.19151495       0.14017956
H        8.36058680       6.06788328       3.81367085      -0.35212941      -0.26110525      -0.34567386
H        5.57414624       3.71032951       0.79234525       0.22430712      -0.09352496      -0.60287452
H        5.54911308       8.42149282       7.57510179       0.84649301       0.51581376       0.53758510
H        7.02324633      12.19693882      10.95370092      -0.12789609      -0.80231209      -0.24474708
H        5.00735415       1.96220363       9.90250685       0.76736379       1.62152349      -1.48228063
H        9.07637537       7.60968663       9.21999490       0.07601858      -0.70521780       0.27134780
H        1.47665317       4.18792552       6.42541451       0.03495533       2.25216392       1.53656096
H        8.54985838      11.05174281       7.48211542       0.40524597      -0.84868441      -0.44966932
H        7.10930173       3.56289888       2.82894609      -0.99485318       1.06387487      -0.17931845
H       12.31980792      10.09526918       0.28507945       0.94910393       0.89259206       0.02393858
H        2.79605481       6.99919409       1.31023749       0.18992760      -0.50691558       0.04253644
H        2.71911493       1.57543333       7.53103309       0.40914589      -0.48868146      -0.37638387
H        0.36179713       4.05437043      12.13950124       0.04786986       0.17430509      -0.22369708
H        0.66853961       1.99010212      11.92141835      -0.10706968      -0.57885432      -4.33564084
H        5.55485918       0.92702426       4.62706673      -0.91967846       2.08843494       0.50226737
H        3.42729288       9.54430165       9.22752995      -0.92138060       1.15564399      -1.78931563
H        3.59463675       9.34922738      11.29529706      -0.33718918       0.71983030       0.63966099
H        1.28432504       4.08005901       2.67735611      -0.52532549       0.02505497       0.41624578
H        9.88263681       6.16247085       3.57768718      -0.95952503       0.28408024       0.73142047
H       11.06473152      12.39933355       5.98551897       0.23574399       1.49708129       0.02646822
H        5.33163474      10.99549212       9.98701771       0.29354599       0.06174597      -0.15997345
H       11.29428354       8.10621615       3.43720578       0.62128034      -0.37778533       0.26876989
H        3.41162833      11.68928184       3.62902113       0.23125900      -0.27735307      -0.74281480
H        4.83359660       3.40310995       7.77063952       0.58413576       0.04018320       0.04303746
H        9.53789154      10.90056566      10.92848280      -0.77142420      -2.34370844       0.75033998
H        8.98789621      10.80532765       6.01749949       0.05464653      -0.76980093       1.26355286
H        7.74754349       2.29236667       2.56473717       0.31590003      -0.54407153      -0.07140639
H        4.89607718       2.92758138       1.95142493       0.21213100       0.80574458      -0.43882112
H        7.14165575       8.57014625       7.39925107      -0.49212142       0.21764771       0.27369778
H        7.73756070       1.08745507      11.27768148      -0.96441902      -0.41708844       0.76583156
H        5.44706721       0.97854469      10.94853302       1.19699738      -0.31943301       0.53095752
H        9.28785324       8.23864954      10.49622617       0.20016125       0.49798537       1.01811864
H        2.15963358       4.74527617       7.76505645      -0.56314275       0.27845301      -0.48238649
H        2.67415008      10.43836168       7.97908977       0.18199854      -0.91956241       1.44072477
H        2.62894734      10.41028632      11.87388925      -0.43645755       0.00510497       0.22223985
H        0.18041502      11.56926235      12.30546802      -0.21578167       0.05613212      -0.06977482
H        3.82568820       7.26206013       2.49027188       1.00402590      -1.15405334       0.85200753
H        1.67652321       1.75251536       6.39374555       0.18344451       0.34720602       0.68677366
H       12.29156230       4.91533562      10.90271125       0.21439234      -0.28679612       0.91842117
H        1.54620674       1.84503880       0.66009011      -1.26617250       0.61968782      -0.11872407
H        6.31523879       0.03906859       3.74586736      -1.22431689      -0.57607229       1.71788979
H        8.53565907       6.36428975      11.84349685       0.91558874      -2.05420904       1.16223496
H        3.93297266       1.69440594       0.21184463       0.55744001       0.46056701      -1.58288939
H        3.83928269      11.96804192       7.66330728       0.40674032      -0.75328803      -0.69064771
H       11.44291349      11.37879469       9.74719479      -0.16500046       0.08380520      -0.05036568
H        2.79228279       1.90992508       3.69253365      -0.47451846      -0.11348271       0.08934368
H        2.75755678      10.03180946       4.59807268      -0.37473507       0.26969726      -0.56163411
H       12.23096864       3.44011537       4.67651120      -0.35952565      -0.30455159       1.60647644
H        9.56236579       1.65547274       7.80969118       0.80290196       0.44340082      -0.76875880
O        5.70090021       5.67802805       5.84933704       0.09125878      -0.40343962       0.54912923
O        2.84899415       7.45906807      10.13873335      -0.02534235       0.39932884      -0.20214203
O       11.31871324       0.57236644       2.15067793       1.25414886      -2.88669642       2.40599888
O        4.15200962       7.23492894       7.58543549       2.33254536      -1.21403322       1.17260076
O        0.24183693      10.73873211       3.50831130      -1.75714990      -0.50415503       0.46583462
O       10.71774244       4.93931206      10.20905165       0.83202654      -1.00742517      -1.46582793
O        3.79103875       5.19670228       3.64979741       0.11897563      -0.51492026       0.47928623
O        8.49990235       7.27427150       6.70951039      -0.25669145       2.22692492      -0.04362435
O        9.77232981      12.29590425       4.59277594       0.85234108      -1.52249292      -0.72770851
O        3.00241389       4.63972644       9.83387076      -1.21582658      -0.68623842       0.41383520
O        6.95086375      12.38593698       1.82700390      -0.62112434       0.56717612      -0.59862415
O       11.11782882       8.47693100       7.79053220      -0.41433101       3.49697693      -1.48069794
O        0.79027964      10.70873547       7.00776459      -1.49897967      -0.49885299       1.61257575
O       10.60638776       5.93605339       1.83787309      -1.13910894       1.27198604      -0.09236551
O        9.55136065      10.78253225       1.47027058       0.84797442       0.14026352       0.59298816
O        8.20563014       8.41620828       1.13544174       0.81810679       0.14423427      -0.10981562
O       12.15209996       7.56669599      12.19174999      -1.18475926       3.80431106       0.71689937
O        6.89052980       0.42456389       7.71997480       1.24470895       1.37719607      -0.92751967
O       10.57729860       5.15800687       7.37438914      -1.27282407       0.27927158       1.13137159
O        1.04450026       2.76474304       9.29056280      -2.27979688      -0.10679123       0.90546429
O        6.57951279       3.78999851      11.55163898       0.16009552      -0.07309229      -0.21766701
O        6.89260248       6.19992402       2.62966568       0.45417464      -2.19473700      -1.51589219
O        6.07003035       2.79553256       6.26616595       0.53436795      -2.19841422       0.78003083
O        8.81193934       2.08331343      11.05055029       1.48837498      -0.11352134      -0.07822827
O        0.60261401       7.05123513       3.86577054      -0.37689896      -0.51493257       1.40637717
O       10.12643361       2.90084431       1.26916301       0.71387758      -0.30040272      -0.33652570
O        5.56904238       9.99567257       1.26921513       0.52649756      -1.17024614       1.01702605
O        5.03994419       8.42600449       4.10538194       1.08935473      -1.14867823      -0.79146844
O        7.65242111       4.92730916       8.04649623       1.49661455       0.22373581      -0.49954792
O        9.23673667       2.50849790       5.42244260       3.87903057      -2.66636591       3.64302720
O        0.14900425       9.13450083       9.89795798       0.15809499       1.02016546      -2.49543637
O        1.57149023       7.58569268       6.96544175       0.11408714      -1.40743831      -0.24266506
O        8.67953806       5.44505154      12.33597556       0.02785438       3.16096984      -1.25703905
O        3.48377620       1.59731287       1.03962927      -0.94720497       2.36303447       0.47684043
O        3.41906131       0.26315216       8.11520906      -0.09782682       0.83712461       0.65606163
O       10.97170381      12.05272004      10.26839779       0.32981450      -0.24944166       0.98781201
O        3.55395462       2.03425932       4.26445921       0.46164686       0.12419852       1.48513103
O        3.32376723       9.92444245       5.37036419      -0.91782766       0.07794083       0.64711448
O       12.01191213       3.37287684       5.68169403       0.29302323      -1.75724806      -1.15810763
O        9.33559492       1.25562163       8.64738499      -1.48966399      -0.35457326       0.01994550
O        0.39544839       3.73841323       2.93454541       0.53546408       0.10452987      -0.51223110
O        9.16071376       6.38075183       4.25251569       1.32837089      -0.24782689      -0.58118114
O       11.65257025       0.60029192       6.52291361      -0.96718414      -0.73967090      -0.62668422
O        6.20532840      11.03275417       9.54370545      -0.85952640       0.80632091       0.74128340
O       10.76520902       8.60368049       2.80602026       0.59578218       1.29582108      -0.03746015
O        2.98743389      11.46596347       2.76679022       0.34053202      -1.03359816      -0.17429272
O        5.22246623       3.96948091       8.47227798      -2.21600591       0.46280491       0.61845738
O        9.08988303       9.99764289      11.21227976       0.62526980       2.14191354       0.00036090
O        8.96882476      10.34240076       6.91968960      -0.18223324       1.70488573      -0.99621969
O        7.95094519       3.14419882       2.97937334       0.47580893      -0.63565300       0.24992116
O        5.31900447       3.79969950       1.71972409      -0.27044591      -0.83766628       0.90763441
O        6.36821364       8.89084732       7.92921990      -0.28311977      -0.59959907      -0.61332026
O        6.92217099       0.50349928      11.57307642       0.93899553       0.06133751      -0.28169338
O        4.67405475       1.40569229      10.56875475      -2.39539236      -0.97928590       0.82383114
O        9.32712980       7.33285690      10.13400694      -0.66949577       0.63579776      -1.21802934
O        1.60313980       5.05343730       6.99813863       0.51593794      -2.89210305      -0.64503953
O        3.48832995       9.98578706       8.32115709       0.35465709      -0.43174030       0.46674965
O        3.57388629      10.23477296      11.75358052       0.53052279      -0.94932543      -0.97466827
O        0.56839927      10.82978701       0.36775121      -0.62626170      -1.05014909      -0.02328242
O        3.14569296       7.62158136       1.95313277      -1.46192031       1.87021563      -0.79427068
O        2.27086998       2.27808858       6.98181776      -0.26596103      -0.39540691      -1.08161036
O        0.57157532       4.85259962      11.62014140      -0.08296567       0.21423314      -0.50438028
O        0.60595875       2.13873010       0.38246079       1.68119653      -0.04141297       4.23686186
O        5.77048747       0.01682725       4.61893354       2.00549392      -1.51600169      -1.98805167
192
Lattice="12.429 0.0 0.0 0.0 12.429 0.0 0.0 0.0 12.429" Properties=species:S:1:pos:R:3:forces:R:3 energy=-937.8190945919666 pbc="T T T"
H        7.00574852       9.57406436       8.69082135       0.31682919       0.15335081       0.76715351
H        5.07044799       3.11892961      12.27648938       0.33424033      -0.29301981      -0.32486795
H        1.39319403       0.39713253       1.98719111      -0.27382186      -0.02186116      -0.14595241
H        9.92192934       8.38876387       0.51713074      -0.52795377       0.05360546       0.21476037
H        2.15620127      11.96541447       4.94184044      -0.17706516      -0.41411377      -0.16043033
H        8.61029858       6.75777275       5.95174115       0.03702685      -0.64456198      -0.09063008
H       11.29549375       9.36850919      11.56406182       0.16796047      -0.49070695      -0.68908789
H       11.26938174       2.93537600       2.68684229       0.07467491      -0.21533962      -0.34298606
H        1.94804878       6.36491010       3.57769467       0.36400822       0.24320550       0.27760606
H        0.41797620      10.43909348       1.18102848       0.49386110       0.49729684      -0.00126449
H        2.22799438       8.44327234       6.50191688       0.04646531       0.04188773       0.47292763
H        8.83941000       9.63363661       2.20351204      -0.14252846      -0.62346039      -0.16657778
H        7.79770202       6.47403489      10.87660179      -0.04204136      -0.07008094      -0.21451359
H        7.08480156       3.71310981       0.17268942      -0.52229577       0.03631160       0.34027564
H        2.76665362       7.73942788      10.89297173       0.43958793      -0.52244338       0.49751105
H        6.16667853       6.62769700       5.25869033      -0.85580157      -0.17631255       0.44543675
H        8.63772329       2.72002706      10.45713621      -0.03580891       0.33703501      -0.59220604
H        7.87310999       3.57702179       7.93115672       0.49627402       0.43028456       0.17791504
H        2.02784882       0.94678942      11.18803977       0.98603321      -1.01034975      -0.07230716
H        9.77731885       1.93826624       7.92642746       0.34371323       1.60438881      -0.30013157
H        1.05870714       9.66593751       4.54764135      -0.72370514       0.72550450      -0.06927355
H        8.34985438      12.32404736       2.41644152      -0.53694956       0.33072540       0.15855519
H        6.11089344       5.71003858       1.03896760      -0.49012533       1.64406463      -0.33012853
H        3.31192760       2.36253653       2.94797993       1.11721976      -0.20437362       0.59621740
H        0.39839360      10.27544817       6.92524187       2.63015580      -1.31049945      -2.69427183
H        2.60472856      11.61291366       0.32732938      -0.52364254       0.18625731       0.98226687
H        1.80847239       4.93171521      11.97305140      -0.51174898      -0.89031602      -1.36493250
H        7.00377004      12.15713220      12.07578518      -0.37135381       0.33616157       0.37868973
H        2.10736461      10.59992333       9.95255778       0.04418750      -0.48335369       0.07548358
H        0.53043662       2.55596108       8.29027112       0.96575720      -0.62864658      -1.46387422
H        8.82963342       1.45790619       5.28463542       0.52996139      -0.27475638       0.42483018
H        8.00764998       0.48530411       8.95107154      -0.72154710       0.41897829       0.11769960
H        5.64454708      10.24896188       8.48518350       0.21415071      -0.42132238       0.09671929
H        4.43744315       1.76168356      11.74465734       0.24368180       1.03448399      -0.46203835
H        0.35420391       1.07115435       3.00738777       0.90337777      -0.15059898      -0.72081708
H       11.23963243       7.52353894       0.60099998      -0.19041761       0.86050575       0.09936474
H        3.37243251      10.98645268       4.56157065      -0.73538346       2.15908162       0.68168460
H        9.38913714       5.54039506       6.47305734      -0.05783667       0.05051720      -0.51533275
H       11.20094487      10.69690936      10.86150205       0.42062427       0.13717492      -0.17950805
H       11.12205661       3.64897459       4.02818103       0.17922011       0.43712450      -0.04957552
H        1.54873933       5.63257345       4.94904871      -0.19529965       0.32889300      -0.91311514
H       11.57763242       9.72804018       1.51610341      -0.67433978      -0.77757388      -0.15362484
H        2.66549239       9.88330788       5.89791898      -0.28753940      -1.92256499       0.07807076
H        8.10898113       8.27347101       2.04431298       0.19628255       0.82883154      -0.50001130
H        7.77123947       7.37701939      12.07291955      -0.05075103       0.03589282       0.06949820
H        6.69362061       3.64093752       1.63614577       1.29530760      -0.70424392       2.53625628
H        3.18430366       6.47459950      11.78082141      -0.35876415       0.09075122       0.11207366
H        5.33189349       5.29252034       5.41352838      -0.30431878       1.89888670       0.57920374
H        8.25828999       1.71599288      11.49805113      -0.16587390      -0.13027533       0.25130301
H        6.58632928       4.51559929       8.04305263       0.32125353       0.29964474       0.45353125
H        3.23384868       0.07254144      10.49620835       0.22167904      -0.13975232      -1.21438868
H       10.83742733       3.02635449       8.30774877      -0.10153019      -0.13443869       0.13092056
H        0.16468970      10.41151078       3.47567162       0.17259564       0.02670732       0.43852908
H        6.77763065       0.18489866       2.33554811      -0.19933001       0.18435736      -0.50350192
H        5.37121310       7.06125071       0.52618928      -0.85257938       0.02984841      -1.11250781
H        3.06976191       1.23550569       3.83304864       0.39132057      -0.73510557       0.65799951
H        0.05614642      10.36323211       8.36463363       0.61475480      -0.57260766       2.21402439
H        3.10627934      11.22756060       1.73139675       1.03760597      -0.62511172       0.96624340
H        2.63092611       4.46390950       0.87467155      -0.86596187       0.27819898      -0.85919025
H        8.01504154      11.48579955      11.21512695       0.60605623      -0.64115431      -0.72554259
H        0.95622655       9.59403296      10.34931497       0.30966005       0.34279007       0.09740130
H        0.23236157       2.45969664       9.74051540      -0.46891088       0.59902211      -0.20739877
H        7.84199516       0.95472515       4.21786503      -0.15435160      -0.63105132      -0.68759317
H        8.91182105      11.68237184       8.75314935      -0.06985516       0.94212483       0.23813472
H        4.49466265      12.17812342       8.25384545      -1.25583460      -0.11224615       0.47911021
H        6.25663408       2.10207687       8.30351277       0.15955259       0.18983848       0.37297221
H       10.62192470      11.90060699       1.70209713       0.35778698       0.82536583      -0.03261803
H        6.76570661       9.80740711       1.26767448      -0.16417409       0.09513447      -0.71220646
H        0.50202306       4.53863454      10.02107083       0.82098088       1.10482865      -0.19152589
H        4.78863063       6.94114921       7.12566390      -0.48705928      -0.14220247       0.22609308
H       10.20572629      10.49903467       4.17740593      -1.04961206      -1.78107188       0.13377367
H        6.12103152       3.26787776       5.63713625       1.89577959      -0.58819041       0.56760597
H        8.31781952       6.77015841       4.00333317      -0.20147106       0.31472869      -0.17914464
H        2.02353849       5.78688069       7.06324951       0.19707658       1.49437201       0.94275081
H       10.29445803       0.15245770      10.33640558      -0.10902647      -0.10330900       1.01895095
H        9.73741003      12.38975061       6.91069790      -0.06385786       0.03804829      -0.04583712
H        0.09135512       2.12658240       5.06773957      -0.15841066      -0.48540672       0.36521909
H        5.86417525       6.75206718      10.08614833      -0.12551357      -0.86034568      -0.12879272
H        0.02859219       7.76295509       6.09604268       0.50488009       0.27738818       0.41332560
H        0.51259959       5.66058280       0.90291676       0.18131124       0.13419498       0.28776898
H        7.34759239       8.79847094       5.60356452      -0.64159960       1.09370015      -1.79659770
H        9.48332973       9.93049220      10.26374703       2.05696733      -0.77528586       0.26592345
H        2.53437093       1.53141134       7.57794949       0.05043296       0.58282003      -0.51468417
H        6.96668469      10.80957683       3.95669431       0.01589931      -0.08344794       1.17879308
H        5.11086590       9.95768641       3.67763939      -0.14319739       0.04731892       0.08667437
H        5.91752416       9.70794635      11.42981951      -0.14666736       0.09141056       0.71365651
H        9.17068284       3.95916056       2.77238025      -0.42798121      -0.04569305       0.54210293
H        4.15990155       6.93960331       4.23352367       0.32366384      -0.21594910       0.59703374
H        2.75004225       7.45507727       8.19665382       0.57858988      -0.03524956       0.04089864
H       10.22617785       3.36889322      11.93217819      -1.31932814      -0.58486991      -0.56151918
H       10.92748798       3.56244171       6.42614395       0.55555167      -0.33546891      -0.34331868
H        1.45357912       2.76380288       2.22054286      -1.00047828      -1.26721501      -0.28686760
H       12.24811287       0.96081793      11.00778822       0.13332289      -0.00415584       0.50161341
H        5.22703728      11.83605826       1.28306521       0.17686224      -1.07563152      -0.33804288
H        4.12198382       3.51946641      10.34895662      -0.16699402      -0.02442113      -0.67236970
H        4.20615985       3.09992364       6.67100332      -0.51135925      -0.10360732       0.15224443
H       11.86115282       7.05454396       4.93525660      -0.10077075      -0.03848643       0.13262865
H       11.99597716       5.68933774       2.17229050       0.23584268       0.08715724      -0.89093791
H        7.39910291       5.99853699       3.17749013      -0.09661730      -0.13596597      -0.49408618
H        2.43666576       4.36243883       6.67149754      -0.31177335      -0.14363896       0.15012989
H       10.35749004       0.16584416      11.95927711      -0.28198668      -0.01794931      -0.17928575
H       11.01071947      11.54307894       6.75008445      -0.34322036       0.47154802      -0.44728233
H       12.05649391       0.62816700       5.01132530       0.27425202       0.27873637       0.38672356
H        5.11789346       5.38253593      10.06023261       0.42121786       0.30427855      -0.22507664
H        8.06395674       3.60258405       3.85920890       0.54835145      -0.14464861      -0.47021776
H        4.32018551       6.51897993       2.78565703       1.49058337      -1.04307126      -1.46041864
H        7.43925434       8.55052682       7.01745507       0.96390928      -0.61903746      -0.95958004
H        8.10562471       9.27805639      10.58494871       0.82670904       0.51630553      -0.61824488
H        1.45360519       0.91100308       6.65118655      -0.10344697      -0.00365200      -0.32710740
H        6.21811697      10.95965730       5.41203322       1.16255723      -1.44866050      -1.64635086
H        4.15553082       8.85614285       3.16940880      -0.32068496       0.68148662       0.01563972
H        4.75619612       8.80552183      10.98900130       0.59859539       0.13237064      -0.10640552
H        2.88724959       4.31199690       9.83831341      -1.01676305       0.59193583       0.13676274
H        3.63432577       3.37756168       8.12646307      -0.02419269       0.05363129       0.30838416
H        1.54138953       8.32727523       8.62197140       0.30689369      -1.09391276      -0.31052148
H       11.06432158       4.24977500       0.37152342       0.62721390      -0.68185000      -0.41461603
H        0.00177728       4.14741478       6.09377576      -1.68421793      -0.92332748      -0.54673908
H        1.80272045       4.15790559       2.73166029      -0.72462588       1.47775629       1.23359259
H        0.31308977       2.04261014      12.00620157      -0.40506470       0.38497771       0.38619017
H        4.68464353       0.73716169       1.74256442      -0.29878360       0.52149582       0.52750272
H        9.73665545       9.05227155       4.69325423       0.24101187       0.31842999       0.10602076
H        4.95717400       2.78275591       4.75871263      -0.65337256      -1.54107871      -1.61243348
H        2.90257356      12.25610542       8.14773508      -0.24192277       0.19320594      -0.59956020
H        6.03328607       1.50062864       9.74827727      -0.06066451       0.32627784       0.04827459
H       10.85674333       1.04591211       1.62209453      -0.51794861      -1.04077811       0.06970447
H        5.26970764       9.82780962       1.53958275      -0.21297718      -0.05023782      -0.30998446
H        1.17907732       5.77999263       9.31479299      -0.03200114       0.00112789       0.45383522
H        4.94996624       8.09800183       8.07735541      -0.11059643       0.23139470       0.31500196
O        6.32383150       9.71005072       8.03163369      -0.69601497       0.42353508      -0.78015207
O        4.83872973       2.63421336      11.44279588      -0.58768417      -1.17858701       0.72482511
O        0.75795617       1.15105559       2.09009633      -0.79749338       0.17423227       0.71761008
O       10.88591250       8.46652559       0.53405472       0.90602406      -1.29741576      -0.12441677
O        3.11019606      11.84820091       5.09097965       0.78600226      -2.04728922      -0.79842370
O        8.86808621       5.82111312       5.69410226       0.02561349       0.42269956       0.73940421
O       11.43893616       9.76183590      10.64784004      -0.13387362       0.06215388       0.65925292
O       11.13387401       3.81453348       3.05198460      -0.24805817      -0.05159309       0.28764719
O        1.22156249       5.91005811       4.03391452      -0.25722411      -0.62885102       0.30243179
O       12.01937318      10.57592839       1.66284001       0.07883263       0.41170222       0.42582034
O        2.46854797       8.90365283       5.68318005       0.29997047       1.89134615      -0.36172556
O        8.38112751       9.09214151       1.50834191      -0.39747188      -0.59394922       1.00925184
O        8.25087391       7.25714271      11.23286208       0.03448139       0.10981443       0.36658291
O        6.34666798       3.89049979       0.81408949      -0.55006387       0.83885580      -2.75046030
O        3.51375636       7.28557882      11.34988007       0.00958254       0.73040124      -0.49822303
O        5.28789306       6.31137215       5.62988748       1.30117934      -1.84863772      -1.27959859
O        8.40982518       2.68005827      11.38964692       0.13331803      -0.09558248       0.26228520
O        6.96010010       3.71191782       7.65658531      -0.75982906      -0.55939655      -0.64059923
O        2.84952132       0.34605102      11.32682415      -0.75410676       0.73255994       1.20861445
O        9.97932063       2.92805295       7.80819043      -0.68130750      -1.44117108       0.52584567
O        0.44086536      10.44487868       4.42809198       0.50901856      -0.54791713      -0.37671895
O        7.50393474      12.33326881       2.92512641       0.71596049      -0.82342980       0.22471640
O        5.96702559       6.71627664       1.17520659       1.13136807      -1.73892589       0.98610432
O        3.85660059       1.69322200       3.49919378      -1.03163830       1.10993086      -1.23922016
O       12.20538134      10.57917203       7.50791435      -3.19013444       1.68955961       0.52428437
O        2.29984448      11.41483470       1.27704528      -0.52633541       0.45389748      -1.88618516
O        2.27615959       5.21058686       0.31404066       1.25677728       0.70802766       1.72197818
O        7.74859943      12.36662512      11.49920891      -0.42285114       0.47758506       0.50748864
O        1.91079385       9.64772617      10.07969206      -0.67200125       0.07245095      -0.12116911
O       12.42099324       3.00341429       8.92416291      -0.49070586       0.00490256       1.66216717
O        8.15934111       1.74559501       4.66982524      -0.26595028       1.31518875       0.75030702
O        8.94599181       0.24434452       8.85410966       0.87842126      -1.25701380      -0.46331289
O        9.60283091       9.70428092       3.98224588       0.99194582       1.63417620      -0.18055613
O        5.24026775       3.44068923       5.36562879      -0.89968176       2.03936525       0.75406095
O        3.63682613      11.81739376       8.61963549       1.80482375      -0.33551393       0.40846789
O        6.34253713       1.29223549       8.85335793      -0.06041474      -0.69781343      -0.23088535
O       10.15201952       0.34831517       1.68779481       0.44533583       0.01531077      -0.33307210
O        5.90334589      10.06438568       0.82100009       0.39097128      -0.04011376       1.03683262
O        1.14640477       5.29727712      10.17352263      -0.76728274      -0.94509820      -0.30997835
O        4.36774146       7.32839204       7.94280358       0.72269675       0.03152152      -0.32331858
O       11.59802230       7.50864047       5.76007137      -0.43316028      -0.31210349      -0.51140344
O       12.04831917       5.91909836       1.20700437      -0.53797178      -0.04708489       0.58857588
O        7.54582521       6.93084776       3.41461307       0.64395862      -0.11259938       0.64654491
O        1.71408097       5.04613658       6.57730046      -0.18990676      -1.60984639      -1.08469911
O       10.82436825      12.31527428      11.14393302      -0.04594452       0.57709798      -0.94462190
O       10.41007753      12.16901387       6.24661351       0.34512844      -0.32518266       0.13838607
O        0.42178800       1.20190089       4.90752192      -0.34234514      -0.09391700      -0.36836072
O        6.02477810       5.77479678      10.03949932      -0.16169767       0.59263474       0.10860252
O        8.20638051       4.01505047       2.98043999      -0.32301766       0.27753038      -0.18895385
O        3.81168265       7.06985167       3.33940794      -1.71349703       1.49250772       0.68787504
O        7.91960068       8.30609697       6.16839269      -0.08129734      -0.48238397       2.58773971
O        8.56174190      10.05253644      10.13325180      -2.87321488      -0.40150148       0.30634008
O        1.78928168       0.89369584       7.56003577      -0.51872131      -0.09704176       0.67471103
O        6.64657838      10.28518756       4.75871399      -1.32051992       1.85347486       0.37320538
O        4.27389585       9.86018120       3.15862493       0.34380811      -0.82137939       0.03647979
O        5.58812290       9.22616492      10.66444784      -0.57249274      -0.45729589      -0.66294394
O        3.75590504       4.03510007       9.54489693       1.03290238      -0.31064052       0.84051398
O        3.38422762       3.01357155       7.23391087       0.50883284      -0.01217261      -0.62445963
O        1.76185142       7.46236204       8.15897846      -0.81380533       1.16105005       0.37854210
O       11.12010872       3.41491547      12.25062646       0.83012061       1.28918664       1.26482648
O       11.65985962       3.55236538       5.74938203       1.36027025       1.31294687       0.67813179
O        2.14799164       3.41875631       2.26104903       1.82325303      -0.11781820      -0.64711330
O        0.54769804       1.61762294      11.17492620       0.14650330      -0.44135035      -0.73330144
O        5.41764087       0.34473271       1.25230074       0.14211434       0.82156449      -0.20161909
192
Lattice="12.429 0.0 0.0 0.0 12.429 0.0 0.0 0.0 12.429" Properties=species:S:1:pos:R:3:forces:R:3 energy=-936.0188054762248 pbc="T T T"
H        4.15372546       0.60882422       2.62716168       0.18676381      -2.05619894       0.02639940
H        9.71688942       4.70633629      11.00220391       0.03533398       0.39146579       0.38315495
H       10.78745018      12.36236879       3.53367269      -2.05009758       0.75388137       0.23916480
H        1.97159820       5.52802065       3.21196073       0.71388914       0.75886554       0.68977115
H        3.27492471      11.25649279       5.77507814       0.05068378       0.05433786       0.71905593
H        5.85479232       5.41148559       6.18753222      -0.28311803      -0.10170452      -0.30890450
H       11.22024984      10.14120972       0.65433773       0.20160884       0.46448436      -0.38303186
H        8.63491777       5.62815974       5.70324658      -0.46749991       0.15252481       0.29941651
H        9.22858243       4.70409916       3.10326996       0.00895506       0.69363704       1.41716468
H        0.15881831       5.85578549       6.32157872       0.28089471      -0.47952763       1.80214944
H        4.85009622       5.85191662       8.79801061       0.33304482       0.41867094       0.34638567
H        6.75654947       9.28731200       6.57651795       0.21134740      -0.58949756      -0.53668174
H        0.67956226       6.31492907       0.21324771       1.52006772      -0.50987673       1.65230739
H        8.96835688       7.90226117       4.91297106      -0.11140286      -0.82800515       0.08284442
H        4.58423906       7.94583067       1.52469806      -1.76341847       0.27836632       0.09102042
H        8.79868126       8.61865119       8.03428950       0.14327322       0.55220743      -0.68652690
H       12.32761099       0.74099947      10.48772016       0.83456638       0.67584557      -1.85369852
H        2.70365472       3.50187385      11.48388336       0.37804862       0.95827619       0.62970963
H        3.01350954       0.30866614       9.93572812       0.31069963      -0.84978654      -0.55613426
H       11.71953394      11.84961985       6.88180039       0.55532100       0.54574896       0.37753418
H        0.68571112       2.55764486       3.62533601       0.13177039      -1.18015871       0.21654014
H        5.50257861       0.55700624       5.94801743      -0.00332150       0.43958366       0.56306034
H        7.31243799       6.94042366       7.21481634       0.60014705       0.22250639       0.99184510
H        8.06296470       1.23778537       2.86730279       0.41898710      -0.79668407       0.61542229
H        0.21606636       8.00421386       7.00428568       0.16149327       0.04159327       0.22059822
H        2.69573490       9.41843713       2.85827271      -0.30628528       1.04408882       1.51881530
H        7.60743528       5.61725183       1.87438060       0.56534342      -0.50212568      -0.01941970
H        6.31372907      10.27308179       0.42062486      -0.98151309      -1.74799510      -1.91248463
H        0.43046767      11.05870808       8.69929045      -0.15071287      -0.60735902       0.79666538
H        2.98851273       1.15511335       6.54583586      -0.32801007      -0.21872844       0.44277154
H        8.59130456       2.29968366       6.83093835       1.24808082      -1.12808882       2.11869692
H       11.75438161      10.85913490       4.82064246      -0.13605864       0.41292527      -0.25614844
H        4.05921874      11.37498685       2.81675803      -0.84491385       0.29736380      -0.00641125
H        9.57939464       5.14364944       0.10003513       0.23768482       0.25505731      -1.16004975
H       11.69733249      11.48877894       2.62361747      -0.10550569      -0.00821729       0.20619040
H        0.83857933       4.71709655       2.63137953      -0.00844499       0.22049141      -0.26159284
H        4.51720201      10.41908876       5.60336073       0.36235103      -0.11161271      -0.13900139
H        5.42467866       4.39270808       5.00143923       0.08760014       0.11389785      -0.36784452
H       12.00075170       9.41221753       1.66095123       0.42700105      -1.77906736       1.02863231
H       10.07818308       5.26732186       5.97641326       1.96447884       0.41771744       1.34812018
H        8.60083305       3.38567313       2.53326966       0.50615473       0.91052224      -0.44374824
H        0.00708392       6.70155320       5.20403120      -0.32402019      -0.27242656      -0.51877717
H        3.70581912       5.69368038       7.86507196      -0.29163361       0.21746974       0.19869265
H        6.53280964      10.83155867       6.31712210      -0.01076540      -0.83027467       0.56823587
H       11.82481498       6.28604220      12.03055005      -0.59307020       0.00223326      -0.64816422
H       10.25671034       8.32088951       4.02999907      -1.32561220       0.23636703       1.22365835
H        5.85892143       8.47795307       0.96652745       0.25076016       0.08931227      -0.51906334
H        8.44038393       7.69304644       9.10012626      -0.16511974      -0.48237622       0.38077522
H        0.26729415       0.63555007      11.94657319      -0.16378643      -0.11389984      -0.39233918
H        2.62515572       2.17263301      10.89784569       1.03866690      -3.02990891       0.04876284
H        2.91303485      12.17171815      11.43311790      -0.15920628      -0.97387162       0.00511859
H       11.90726021       0.93772475       7.15313353      -0.46614177       1.32266740      -0.31901445
H        0.74773481       0.95591164       3.61442774       0.06358771       0.78640471       0.55430495
H        5.51244854       0.02725725       4.55830562      -0.70838810       0.43052632      -3.30479114
H        6.62636637       7.13355359       5.86037189      -0.53298694       0.10744498      -0.51286759
H        8.55261130       1.81401790       1.46356893      -1.08231625       0.28921372       1.35025289
H        0.26056518       9.12962900       5.91169483       0.41690803      -0.50523900       0.54992946
H        2.67537558      10.33098125       4.34575139      -0.11285867      -1.30475902      -2.48962973
H        6.29858594       6.44133329       1.81667820      -0.11472548      -0.05881842       0.12916278
H        5.97969639      11.59699282       1.19524798      -0.90759080       0.53422712       0.21541998
H        1.25608671       9.81268592       8.57492983      -0.21282891      -0.62831278       0.42979757
H        1.78942034       0.27801980       7.10958257      -0.31725896       0.30259286      -0.13590168
H        8.59254018       3.39860501       5.83976732       0.89443960       1.48074722      -0.44037981
H       10.77575581      10.12474817       5.79643699      -0.04891678       0.09470666      -0.03348576
H        6.50295429       1.72303707       0.91858326      -1.61906348      -0.09590722      -0.88829125
H        8.17350421      11.55010121       0.01967513      -1.06501134      -0.34214485      -0.11696808
H        8.13439341      11.96109263       4.10790663       0.22387833       0.22282800       0.39391350
H        6.45634075       8.82955319       4.25439329      -0.63507598      -0.47002656      -0.34559787
H        4.17700222       4.96563817       0.84349812      -0.97411423      -0.36906449      -0.34596246
H        6.49527558       4.12175501      10.34627277       0.45984002      -0.06597961      -0.43814898
H        3.56900211       5.98873452       4.90285659      -0.51314064       1.31234130      -0.19593069
H        5.85032422      12.08884511      10.05124878       0.00670051       0.28923023      -0.08532332
H        7.18505335      10.42323568       2.84707187       0.06191758       0.09504648      -0.12534101
H        3.15397527       6.14417971      11.80447011       0.90357546       0.87025258      -0.37583117
H       10.63705454      10.57393034      10.64480035      -0.34483463       0.22448132       0.30473878
H        0.28801590       7.49150897       2.90546162      -0.18068550       0.18532836       0.28569276
H       10.47713520       3.16155533       8.42629631       0.42527390      -0.27522518      -1.43890915
H        8.53806963       3.07057829       9.92039744      -0.86812457       0.06441154      -0.24023048
H        0.51187185       5.82060132       8.33455222       0.16787886       0.23739123      -0.21294418
H       11.79595272       4.16771077       4.19241938      -0.18728928       0.58328535       0.61844168
H        9.38681304      11.34801880       7.95787410      -0.07490630      -1.40834324      -0.70595965
H        9.59699340       8.30512137      10.95558618      -0.29140207       0.50389446       0.06735194
H        2.18214438       2.56703677       5.52736150      -0.78747115      -1.00817598      -1.42902969
H        4.00504244      10.01463358       9.06795935      -2.02872731      -1.01400206       0.05019981
H        3.17014880       9.11631818       7.32868765      -0.42204737      -0.47349881       1.54524243
H        7.21181269       8.71685447      11.22467304      -2.32396844       1.61361233       0.40435069
H        9.23264862       1.12480956       8.83734663       0.03140678      -0.00934434      -0.36506673
H        5.51655614       3.43547641       6.67528894      -0.40325667       0.50177396      -0.26486385
H        3.17179960       7.70041132       0.46599552      -0.71384260       0.96214838       0.18248717
H        0.34697844       2.84509585      11.69885259       0.47013284      -0.07772705      -1.54123615
H        1.52838914       3.76566634       8.87655649       0.04056815       0.11859689      -0.87795694
H        5.51852087       4.25257520       2.59125821       0.56393344      -1.91257144       1.11874576
H        1.17582452      10.81900291       0.48097920      -0.02178320      -0.50203416      -1.07915520
H        2.35619619       1.51858634       2.07633048       0.91712175       0.12126831      -0.56896006
H       10.56840555       1.70802030       0.50677757      -0.75854493       0.74760723      -0.24168901
H        6.81263611       6.69095744      10.93980238      -0.20917923      -0.14429052      -0.29260990
H       11.64017595       6.32924823       8.86672461       0.36042518       0.65536874      -0.70413699
H       11.13179557       3.87572981       2.82981632      -1.32338552       0.09348721      -0.79978763
H        8.38564404       9.92995987       3.76999614      -0.85617479       0.15161047       0.12763076
H        3.09228374       7.14644218      10.65507885      -0.23116690       0.45275672      -0.73756869
H       11.60428578       9.43837288      10.53963653      -0.08726310      -0.07406542       0.14347178
H        0.39678795       8.92100718       3.38958025       1.26970524       1.25158980       0.40827560
H       11.71307497       3.54338983       7.58458654      -0.63527279      -0.42291630      -0.06726386
H        9.56611817       2.67391807      10.99213776       0.09593774      -0.09915126      -0.50329832
H        7.80643762       0.65947739       8.84081807      -0.65216358      -0.19206725       0.17410073
H        6.16804617       2.43514252       7.54041245      -0.28906978      -0.31908845      -0.00879031
H       10.56389263      10.37593133       8.08291793      -0.14806807      -0.30305739      -0.13263956
H        8.95975140       6.88848107      11.16085458       0.05954291       0.47564896       0.07952089
H        3.34802642       3.30371795       6.16432085       0.06846172       0.33464510       0.18187164
H        5.31663393      10.15355139       8.63488717       1.79290219      -0.08916335      -1.46273361
H        3.56122366       7.86079564       8.15593227      -0.32324875       0.44018420       0.61087143
H        5.75223230       9.63760901      10.82096311       0.85596866      -0.84804693       0.15454595
H        9.52546381       0.77642796       0.00274968      -0.58566299      -0.47199840      -0.66644497
H        5.30775282       6.49841347      10.93453943      -0.56696715       0.25843649       0.14234953
H        2.61326400       9.09806624       0.89774058      -0.16513418       0.60841975      -0.81810177
H        0.88899065       3.04520054       0.61031861      -0.43702815       0.02024889      -0.00379137
H        1.43931823       3.94491896       7.22344493       0.76940416      -0.55254091       0.40779582
H        5.89445163       2.70700356       3.09687633       0.09626911       0.84593685      -0.46178931
H        1.44145178      10.30581393      11.39095721      -0.73154735       0.00084482      -0.19226258
H        3.40564523       2.59829464       2.10885875       0.23762166      -0.61414529      -0.65780609
H        2.56785374       7.25086665       5.05114075       0.14389227      -0.20007707       0.14650396
H        6.34730691       0.76702781      11.04300283      -0.34541576       0.11665124      -0.41579045
H        4.91408463       1.84333001       0.46655992       0.68223131      -0.24832320       0.13130039
H        8.50037568      11.79602839      10.92058730      -1.09390721       0.22419400      -0.81157086
H        8.52885148       1.02052356       4.65554494       0.07934874      -0.56532652       0.42854089
H        5.52116785       7.60621887       3.89497977      -0.87698858      -1.34842390      -2.50121251
H        2.60172646       4.97391306       1.12737981       0.31343329      -0.12702267       0.28270948
H        5.80186059       3.07411879       9.59263040      -1.68999062      -1.23225333      -0.60716711
O        4.60359083      12.16772669       2.92785427       0.68190459       1.74723281      -0.38402585
O        9.79204211       5.49620467      11.61246886      -0.22791476      -0.92731815       0.96846428
O       11.64621306      11.99127857       3.47419586       2.16675054      -0.67745590      -0.49581790
O        1.51904124       5.39057565       2.37364466      -0.93339913      -0.60055292      -0.45115471
O        3.55773050      10.32120295       5.65898333      -0.74587706       0.06806991       0.13817796
O        5.10410107       4.86655999       5.78864705      -0.62281304      -0.20536242      -0.06994220
O       11.91471917      10.28621063       1.33185996      -0.78094511       1.45632882      -0.97577835
O        9.37806814       5.09352434       5.38964099      -1.77496489      -0.43365393      -1.85865906
O        9.14443120       4.22679595       2.29099473      -0.07108045      -1.06436839      -0.83872299
O       12.23122371       5.76751780       5.45395338      -0.09544007       0.60308094      -1.49842202
O        3.97311046       6.23763175       8.63400110      -0.03034471      -0.98235668      -0.77855419
O        6.52664535      10.10229280       7.00468592      -0.26365007       1.42912520       0.16610854
O        0.26561590       6.69239674      11.89372237      -0.98393313       0.50047681      -1.00132538
O        9.47776561       8.64706886       4.60369788       1.78647831       0.55371658      -1.38174484
O        5.51065330       7.99311521       1.72472251       1.86059169      -0.31075268       0.45632613
O        8.51427649       7.69418764       8.12657089       0.17825285       0.17376901       0.31438559
O       12.00374068       0.40926995      11.29593026      -0.73832515      -0.78441230       2.00153855
O        2.21278465       2.99908259      10.83887038      -1.62624308       2.53608597      -1.00454761
O        2.90428409       0.50949664      10.86034675      -0.00607284       1.35309820       0.28943316
O       12.07037559       0.09348442       7.55151354       0.10868453      -1.69964206      -0.00124158
O        1.24792176       1.77047878       3.90197751      -0.15264344      -0.11474605      -0.73982913
O        5.66042134      12.19370425       5.42631380       0.88310326      -0.61415708       3.04172793
O        6.86108342       6.44241499       6.51475343       0.48742793       0.07816607      -0.62917201
O        7.84470386       1.95084180       2.25731897       0.67758010       0.45227370      -2.24090413
O        0.80638840       8.40880993       6.34415084      -0.10123818       0.22294796      -0.72739157
O        2.29054054      10.20783792       3.34337794       0.41535502      -0.36920045       0.55655538
O        6.66106059       5.53582770       2.00894752      -0.97698473       0.59272264      -0.21206776
O        6.65085105      10.97375859       0.93102000       2.25995464       1.88803611       2.20866038
O        0.57205197      10.19085190       9.17298614       0.35255929       1.08704701      -1.03942631
O        2.70694625       0.25742397       6.79525841       0.49463564      -0.21736629      -0.03480645
O        8.15436501       2.59574388       6.07251764      -2.17590342      -0.61280297      -2.00876955
O       11.68169507      10.48301553       5.72358104      -0.14146961      -0.09799206       0.14894174
O        3.12756121       6.75868413       4.42116407       0.35417352      -1.28096608       0.16623331
O        6.34153548       0.50789932      10.08752044       0.26190584      -0.50176283       0.16120655
O        5.81180234       1.56652470       0.18225957       1.03868441       0.22016158       0.89546990
O        8.86685692      11.63561227      11.77804001       1.82429439       0.19882434       0.96867754
O        8.84961859       0.22394734       4.16947980      -0.10663023       0.61713256      -0.27017842
O        5.82269318       8.13918677       4.57722067       1.73044096       2.13086010       3.12967287
O        3.29847116       4.68492416       0.47167476       0.76228725       0.51378530       0.22888359
O        6.67913041       3.36080070       9.74199633       1.44188173       1.57257920       1.08165487
O       12.34040194       6.60683211       8.22278692      -0.68804483      -0.78226988       1.27732644
O       11.88810064       3.68038012       3.36813846       1.33132930      -0.26230974       0.15594335
O        7.50083321      10.40362336       3.77692596       0.52609027      -0.60487827      -0.25138540
O        3.56546575       7.02347927      11.48109797      -0.47625552      -1.77115360       0.69368702
O       10.77974850       9.68959828      11.01015012       0.75317194      -0.40352044      -0.25293901
O       12.22347669       8.19037337       3.39237064      -0.78007111      -1.57453568      -0.73314089
O       10.83788773       3.07421068       7.47985712       0.40975241       0.62151400       1.63036497
O        9.49073745       3.08464919      10.08805600       0.62025795      -0.11070306       0.90467428
O        8.58006147       0.69494585       8.24705704       0.68509045       0.05448505       0.45736165
O        5.27662007       2.65672244       7.20630473       0.46824838      -0.90003248       0.49107132
O        9.67219060      10.40257687       7.68174522       0.04652734       1.55494758       1.02147444
O        8.72524449       7.84445381      10.96416092      -0.06143745      -0.65101345      -0.06085874
O        2.37717325       3.24446085       6.15588959       0.91401094       0.64056670       0.31956569
O        4.80923035      10.39346307       9.39182988       0.87234465       1.29167037       1.81121332
O        3.08446157       8.72914586       8.27567326       0.41075611       0.45651054      -2.35845424
O        6.30640739       9.19567429      11.54051363       1.40153580      -1.13108515      -0.79130423
O        9.59925301       1.72353089       0.25995520       1.43402059      -0.20768720       0.46453267
O        6.10806722       6.21206126      10.46801801       0.74944252      -0.30649839       0.21079246
O        2.89647738       8.25708104       1.26472511       0.15677399      -1.13814802       0.27472436
O        0.02688458       2.99707271       0.14672609      -0.11173193       0.19664399       1.94203680
O        1.11064601       4.22612508       8.10572629      -0.77053230       0.41252106       1.24358449
O        5.25188007       3.44254662       3.17263729      -0.45990781       1.02058296      -0.47009988
O        1.84295739      10.64179146      12.19814393       0.91033204       0.37749134       1.20672089
O        3.19324071       1.77952210       1.57559409      -1.24802008       0.74787744       1.60187574
192
Lattice="12.429 0.0 0.0 0.0 12.429 0.0 0.0 0.0 12.429" Properties=species:S:1:pos:R:3:forces:R:3 energy=-937.3312893010215 pbc="T T T"
H       10.44273296       8.01371984       4.08602144       0.46005265       0.09058496      -0.33578112
H        7.76177410       1.30900049       6.31244040       0.26826635       1.24164130       1.08012484
H        5.26850050       6.88454934       1.90781229       0.39645139      -1.20942174      -0.47186713
H        1.42895291      12.34443407       5.82879767       1.18214523      -0.07229136       1.93984598
H        3.40147019       9.31905517       4.05634745       0.34850460       0.32329520       0.91471907
H       12.06954183       2.67941682      11.25603682      -0.34612495      -0.81144199       0.90075293
H        8.07086546      11.31044756       7.24540482       0.18200065      -0.30645976       0.64904178
H        6.80213437       2.95117087       0.29330728       0.12968375      -0.51970164       0.95716463
H       10.45420969       3.55217196       1.37765128      -0.43118224      -0.01256801      -0.46586293
H        0.16993556       7.42717651       4.77438926      -1.04068186      -0.07236776      -0.46884222
H        4.43985247       5.99143366       4.39788173       0.40775316      -0.26120766       0.07206610
H        6.10903219       4.68002885       9.90407140       0.53609225      -0.99150342       0.25357484
H        7.89927021       7.23990698       5.18651335      -0.41384183       0.37257799      -0.75221116
H        2.87282377       9.58129028       7.85187936      -0.09298344       0.23283726      -0.00755716
H        1.91999747       7.83975849      10.08200609       0.99188857      -0.29988621      -0.69803462
H       10.82071842       8.75461757       7.32494793      -0.04365375      -0.29146946      -0.43369377
H        5.79737418      10.20835762       0.45500251      -0.02167237      -0.16316005       0.11002264
H        4.74025229       9.90172575      10.58411426       0.74348664       0.13275176       0.32253911
H        8.55596077       5.21894910      10.17776771       0.48244353       0.04477780      -1.76560023
H       10.44599679       1.86211433       6.15822799      -0.33306734      -0.04809216      -0.35160171
H        2.45399303       2.59420469       4.46977915       0.14769811      -0.64867312       0.29977851
H        2.94154957       5.81223887      10.41376304      -0.83315014       0.66380975       0.27117499
H        5.15940727       7.77104663       6.72777829       0.30711369      -0.19005271      -0.11212200
H       12.15048915       6.06137564      11.65223035       1.51391051      -0.75581017      -0.58087951
H        5.21552057       0.30703761       0.62022681       0.75099824      -0.16740981      -0.43754139
H        3.29473744       6.89344688       1.14330341      -0.56578094      -0.16192993      -0.02788483
H        3.06985201       0.63718629      10.39186620       0.72177275       0.19851087      -0.10880160
H        7.99773829       8.60846153       9.91487514      -0.52652453      -0.11760006      -0.27618663
H        6.01391654       8.14153972       3.72684705       0.16492976       0.48249150       0.59916387
H        7.10222070       5.92677841       6.64118831       0.65027547      -0.13712295       0.44005739
H        7.32998237       3.56582206       7.54887694      -0.29747728       0.28592033      -0.32740474
H        5.68580026       6.23629029      10.77551151      -1.10426333       0.31116215       0.44400401
H       10.52578715       6.50403912       4.15066088      -0.01993131      -0.93987261      -0.09117328
H        6.82430516       0.39736066       5.60649806      -0.92938814      -0.52906818      -0.19840372
H        5.73017985       8.34545056       1.52421802      -0.55040769      -0.46394066       0.99838154
H        1.30163558       0.20687450       7.36637453      -0.90372200       0.19329579       0.92513191
H        3.32101901      10.16138036       2.89417315       0.35993537       1.26963585       1.53034462
H        0.22459701       3.10480381      10.02228122       0.31325928       0.11179054      -1.32672765
H        9.05110821      10.23349531       7.73457068       0.36410853      -0.50342231       0.02938534
H        7.27962298       3.57987611       1.62362898      -0.38049201      -0.65856556       0.05857662
H       11.40514417       4.19792923       2.36588745       0.10309050       0.14417251       0.30742925
H        0.70449418       8.92301381       4.90004617      -0.01950379      -0.85995657       0.13224606
H        4.62771673       4.45324772       4.26526446      -0.03185057      -0.04342951       0.42573868
H        5.95454135       5.45608198       8.50927550      -0.28842016       0.17681467       1.19572832
H        8.99523253       6.13925817       5.52210466       0.57945803      -0.91203201      -0.83458701
H        2.82446723      11.06581801       7.25480074       0.69433569      -1.35200143       1.01547629
H        1.74028660       9.27909543       9.74798046       1.27108681      -0.78419517      -0.39137506
H        9.35109258       7.93580911       7.06255284       0.66341325       0.15513489      -0.26234446
H        6.94136722       9.30432703       0.07305018       0.32778918       0.06623599      -0.13512426
H        3.62053250       8.94046505      10.66913836      -0.00403010      -0.28390653       0.26473983
H        8.28462649       5.28034422       8.56992722       0.72999485       0.08560864       1.37756169
H       10.09608782       1.99671929       4.59560213      -0.76840824      -0.48071991      -0.52312479
H        3.93843983       2.06746920       4.03843348       0.13004060      -0.32395285      -0.30333998
H        2.20000663       6.05430629      11.74718535      -0.11583398       0.45266611      -0.55757048
H        4.71980716       8.45498806       7.93323718      -1.05233003       0.85922540       0.99364031
H       11.45829654       7.05487963       0.11327449       0.13198107      -0.40590486      -0.19305188
H        4.10866551       1.32863171       0.42966233      -0.19064371      -0.43221561       0.51059964
H        2.24932791       5.89382080       1.71942164      -0.14376596      -2.52632189       1.29874630
H        2.23727562       0.02182779      11.55533871      -0.08181545       0.01882877      -0.33146140
H        8.99115573       8.98220169      10.92630642      -0.12660465      -0.08154058       0.28014937
H        6.28862584       8.90916333       5.20129645      -0.21275626       0.02938430      -0.99877927
H        5.81553071       5.27973506       6.42631245      -0.94021321      -0.61800039      -0.49839427
H        8.58372484       3.08999853       8.27375395       0.20335692      -0.08597805       0.02194241
H        5.15665634       7.56876266      11.45886459      -0.18960321      -0.80495585       0.17714555
H        1.68754076      10.66405948       4.26884834       0.29369021       0.11003492      -0.73580679
H        3.12216012       7.51357355       3.03189460      -0.12763922      -0.22547915       1.31143188
H        1.53495570       1.47705320       1.01299416      -0.06615415       0.01564380       0.36091961
H        2.66917738       3.87238189       3.07014040       0.04161869       0.06481416       0.03131957
H        9.61165328      10.26402387       4.30234681       0.75446170       1.26898950       0.65598220
H        9.15586728       2.85048705      11.00369289       0.40032223      -0.19569022       0.08926863
H        4.35543002       1.28729785       8.83710025       0.65465146      -0.03521027       1.16987250
H        8.99335447      10.50938012       1.31121795       0.26083673       1.53153227       0.03112661
H       10.12651130       4.00760321       4.87873321      -0.02515637       0.12051242      -0.15312451
H        8.43233389       1.87374851       2.26390232       0.37823465      -0.50268565       0.22957979
H        1.18465415       1.37061918       3.68432023      -0.37210463      -0.32705124      -1.39408354
H        6.61435969       5.14979957       3.67822405       0.41416967      -0.31058422      -0.25003467
H        0.55436892       9.99463564      11.75627495      -0.03917240       0.01829918       0.20161538
H        2.15371816       2.90212302      11.66053132       0.26082602       0.07891078       1.11955649
H       10.98283282      11.49693385       1.99609761       0.08483218      -0.48098532      -0.32407780
H        9.80008271       8.85941318       1.98110931      -0.95783430      -0.28441224       0.47331076
H       10.96524497      12.13789853       4.74091199      -0.11467455      -0.57857333       0.31991352
H        0.01547378       9.15758566       1.54159411      -0.88665217       0.59489047      -0.01537792
H       11.84381830       0.42943459      10.77597154      -0.03596032       0.79910821       1.13227736
H        5.64895606       2.92547698      10.27275515      -0.97850356      -0.49778070      -0.00227303
H        3.30370836      11.44079517       1.09794280       0.22683929       0.85458132       0.27069363
H       10.35733678       4.77049570      12.08536860      -1.14702550      -0.27140095       0.03137525
H       10.33638152       8.30716687       9.09416492       0.58323996       0.02518083       1.64651587
H        3.88548380       0.35996818       6.78169568      -0.42010345      -0.51157441      -0.08245930
H        6.46533359      11.44877727      10.81569273      -0.60897327      -0.24012680      -0.36355628
H        8.12253382       6.82432516       0.65118302       0.85370799       1.78773166       0.05258805
H       12.24702780      11.42300209       9.12334550       0.44583543       0.89904465       0.05126759
H        0.47073506       8.84982031       8.33565547      -0.82377984       0.54484694      -0.94283386
H        6.04401589       1.86699527       2.70183314       0.30635117       0.73478938      -0.03617760
H        7.45059962       0.74939704      11.66265833      -0.71115625      -0.83479566       0.78782527
H        9.34018569       0.19974543       8.04846881       1.60453801       1.35066398       0.04600229
H        4.86660916      10.39417481       6.35028452       0.66144160       0.47732367       0.16267759
H        0.04495765      11.88591860       1.74664339      -0.53992328      -0.87810659       0.45351346
H       10.35747489       8.38764012       0.76432728      -0.53883471      -0.04568636      -0.57554779
H        8.97551630       4.57896093       3.94621148      -0.38047111       0.00838431      -0.16451576
H        8.17185013       1.02731518       3.52699938       0.29511107       0.13072472      -0.05620400
H        0.18856187       1.91037128       4.78443253       0.32839257      -0.12087270      -0.32653588
H        7.42649626       5.55760735       2.38864125       0.09113183      -0.72892060       0.68193170
H       12.03661436       9.18737620      10.79114664       0.75004621       1.67069633      -0.34338589
H        2.92972603       3.81904939       0.25979961       0.07481359      -0.18430672      -0.20392864
H       10.77572342       7.54376725      10.49351511      -0.06430022      -1.46589166       0.27871723
H        4.09748180       1.78097574       6.32072311       0.57084305      -0.67689583       0.61312147
H        9.54723138      12.33075233       5.26354911       0.53830657      -1.19896615       0.17052207
H        1.01315626       8.19081601       1.12545469      -0.75874076      -0.75308557      -0.62433982
H       10.57794991       0.89986939      11.48128544       0.73928665       0.19564007       0.61696340
H        7.11570341       2.80935090      10.48451557      -0.91263305       1.22001235       0.58267633
H        3.02268707      10.25940285       0.26063070       0.10240788      -0.54307312       0.02079856
H        8.81465727       4.82086184       0.04812971       0.04755504       0.17526192      -0.09146789
H       10.85890386       0.60886841       8.16005520       1.01556833      -0.53786874       0.27841001
H        4.96292667      10.90081635       4.94244707       0.74675399      -0.04720983       0.46454516
H        6.69833613      10.82041824       9.46145128       0.50438209      -0.37806383      -0.83017587
H        6.64948027       6.47189579       0.05536294      -0.28642955       0.31282776      -0.39262474
H        1.00343678      12.41685505       9.56057063      -1.60015819      -0.01512788      -0.36943003
H        0.51353312       8.61458436       6.85164545       0.05266569      -0.25641944      -0.87584308
H        5.21907355       0.72221873       2.66081086      -1.36459692      -1.76471041      -1.35389021
H        7.54254293      11.95775912       0.18946223       0.30312706      -0.09195292       0.20443299
H        5.13268341       0.37232902       9.80392764       0.32485080      -0.44305534      -0.01153488
H        8.91684919      12.08960405       1.84669617       0.24813493      -0.65548761      -0.19441365
H        0.14777386      10.76471641       3.60444666       1.30843213       0.16826723       0.66187341
H        2.29569078       7.44722778       4.43103537       0.56749821       0.19985351      -0.33304913
H        0.18475081       1.83794135       1.63860007       0.05430225       0.06510784       0.12565516
H        1.89721531       3.56817012       1.75820547      -0.00883529       1.00152080       1.10552529
H        8.58118387       9.17478275       4.19446073      -0.85293639      -0.31115867      -0.14390991
H        9.43339624       1.67767523       9.92352209      -0.29954360       0.33453426      -0.04622811
O       11.02198525       7.25442489       3.80916269       0.02355119       0.55690955       0.19746309
O        7.73601417       0.68839035       5.59470206       0.64831080      -0.71350874      -0.74979514
O        5.22466899       7.77663173       2.21594548       0.28889632       1.63549782      -0.62458228
O        1.93999294      12.32317244       6.73632587      -0.43063208      -0.20800774      -2.91794250
O        3.46426974      10.30887332       3.91386078      -0.65414578      -1.52808803      -2.57463286
O        0.22610247       3.37770510      10.93138042       0.30139263       0.79975980       0.39166681
O        8.54321132      10.99985815       8.06316898      -0.99083256       1.00434511      -0.75510738
O        7.04139573       2.69384826       1.23505351       0.02364169       1.42573057      -0.84283654
O       11.25636895       3.37624495       1.88324741       0.55702745      -0.36949130       0.22980895
O        0.83878161       7.96281003       5.22119076       1.04067881       1.13861706       0.10670541
O        5.10483914       5.26108455       4.55827145      -0.73186914       0.42944393      -0.29716436
O        5.64422186       5.40403281       9.48491354      -0.57142718       1.51454610      -1.82842694
O        8.36901735       6.76168655       5.88324524      -0.26649699       0.66578320       1.64113108
O        3.42295010      10.37938973       7.77456698      -0.69425821       0.99145678      -1.10691584
O        2.38198424       8.50846130       9.49003373      -2.45451746       1.18485858       1.27665602
O        9.86040154       8.62608512       7.55040685      -0.56306744       0.14138601       0.51874963
O        6.54220542       9.72825375       0.86138715      -0.20947024      -0.05667006      -0.31939814
O        4.37549633       9.25674705      11.23419043      -0.74285750       0.13481566      -0.38292974
O        8.99678347       5.19076389       9.26763936      -1.13348507      -0.01093757       0.39650352
O       10.73962149       2.18804285       5.27680057       1.03195594       0.50373054       0.83500993
O        3.42073258       2.80204394       4.40531219       0.35381783       1.24245407       0.25802843
O        2.10577433       6.22445459      10.77691564       0.86988564      -1.20006297       0.50309984
O        5.51185431       8.08880552       7.57490388       0.80648506      -0.63774393      -0.87728197
O       11.28962156       6.40535006      11.81829461      -1.21090641       0.54942819       0.81257302
O        4.32648759       0.50742767       0.93986164      -0.57063129       0.61033803      -0.49715188
O        2.34222731       6.74826620       1.34721702       0.92564172       2.80818561      -1.61964094
O        2.15722458       0.49573355      10.70657407      -0.67591073      -0.27456919       0.47459298
O        8.02225669       8.83338974      10.85340862       0.40666988       0.17404663       0.09060393
O        6.66979915       8.41346067       4.43237165       0.43112000      -0.32348000       0.45802773
O        6.52157484       5.24491794       7.07941041       0.41734203       0.36116932      -0.45959447
O        7.92101394       2.80431126       7.62925046      -0.05462811      -0.33365363       0.01818222
O        5.24093536       6.58368328      11.64568896       0.63964064       1.07970915      -0.18415420
O        4.61491314       1.19854089       9.82640447      -0.69493996       0.45175025      -1.67461512
O        9.31860174      11.45754892       1.18528676      -0.76277182      -0.54878540       0.15918887
O        0.73115667      10.70247997       4.44345216      -1.45963779      -0.32467487       0.12948302
O        3.22538385       7.47938819       4.02760902      -0.42998025      -0.04281441      -0.40825740
O        1.00757656       1.33318608       1.82299208      -0.30447368      -0.20596412      -0.40788938
O        2.07318917       4.30998268       2.42247973      -0.21951211      -0.96116902      -0.92489562
O        9.46613906       9.40927064       3.89703060      -0.17197430      -0.87864759      -0.66131342
O        8.90310028       1.94206786      10.71310212      -0.34418544      -0.21654936      -0.14147629
O       11.89919776      11.13624789       2.09740649       0.62441323       1.12034833      -0.32430726
O        9.45547046       8.51086946       1.12561110       1.21970027       0.22494633       0.31802498
O        9.83027219       4.78962634       4.36554662       0.51404001       0.05906936       0.57937755
O        8.88882888       1.24593841       2.88481192      -0.75396992       0.21922697       0.08467996
O        1.12199331       1.64355296       4.59413798      -0.60952863       0.34320479       1.58252259
O        7.42109753       4.88664380       3.14080358      -0.54037754       1.02860697      -0.80408512
O        0.25128535      10.00094667      10.83713699      -0.52786824      -1.35725968      -0.31286152
O        2.64309322       2.90010369       0.11496395      -0.06024931       0.02770767      -1.38236270
O       10.70945767       8.39303853      10.07273650      -0.64253463       1.24853151      -1.81059523
O        4.52606450       1.06721064       6.87852207      -0.01669659       1.65103432      -0.36552465
O       10.26811851      11.62732963       5.21155594      -0.59164143       1.69056340      -0.35598625
O        0.07501535       8.43554672       0.89354424       1.52303716       0.28097439       0.69368667
O       11.56258749       0.94508568      11.61283799      -0.82558179      -0.95342741      -1.42496325
O        6.32434568       3.41121022      10.76351671       2.37058403      -2.14917025       0.10605707
O        2.75067432      10.64552131       1.11524903      -0.25376164      -0.45548089      -0.42530756
O        9.53451325       4.20495303      12.22324416       0.72216829       0.27943129      -0.12648273
O       10.00215291       1.01359691       8.06556219      -2.24565258      -0.77743828      -0.11138704
O        5.54637159      10.80582025       5.74894268      -1.16897273      -0.49661013      -0.41377372
O        5.96761998      11.06103693      10.03241471       0.11105250       0.90416840       0.81735640
O        7.48731998       6.15451999       0.47766961      -0.12523669      -2.16569524       0.63836879
O        0.05880038      12.38955580       9.11142462       1.27531061      -0.93700228       0.37836748
O        0.05950916       9.19298541       7.48586753       0.55224171      -0.34032064       1.91392661
O        5.54758219       1.30033886       3.31035484       0.94090235       1.10070713       1.66501586
O        6.87872354       0.06965489      12.15098877       0.86527748       0.91144118      -0.89684160
192
Lattice="12.429 0.0 0.0 0.0 12.429 0.0 0.0 0.0 12.429" Properties=species:S:1:pos:R:3:forces:R:3 energy=-939.2810615097344 pbc="T T T"
H        4.36950717      10.95368738       0.44191883       0.03937954      -0.31881509       0.06385970
H        4.63806281       1.87092695      11.79782206       0.10042986      -0.42325937      -0.39167587
H        1.56915732       1.22215571       3.34380138       1.05509127      -2.04498064      -0.93799292
H        9.89482982       7.96951779       0.94120886      -0.46860406       0.30772689       0.49728276
H        2.45319063      10.57725200       5.23380778       1.53861659      -0.91014500       0.81113824
H        9.35937049       5.14129543       6.80539510       0.30223381       0.68672976      -0.94726981
H       11.28281130      11.07602058      10.51074929      -0.58135267      -3.13874508       0.57229717
H       10.38040911       2.29986949       3.42619294       0.48941990      -0.27521429       0.19675383
H        3.79931916       4.80654153       5.24259758      -0.47801854      -0.10695346      -0.50199105
H        1.09745374      10.20372933       1.75552583      -0.00032882       0.28002309      -0.34580143
H        0.59583254       9.28250199       8.23298715      -1.19086310       0.24535018      -0.57369162
H        8.97060457       9.13354315       3.35724991      -0.32892086       0.45117937       0.63912767
H        7.97908040       5.01722315      11.69260352       0.73889540       1.05719408      -1.21115774
H        6.84807664       5.27036728       1.26679963      -0.48350165      -0.17107145       0.20630040
H        2.44874668       5.67446961      12.24353323      -0.15945107       0.52052763      -0.44814479
H        4.96410116       9.41418106       6.13020708      -0.76406745       0.42685528      -1.13814320
H        7.93583114       1.93915560      10.28311948      -0.59924657      -0.12261073       0.20715550
H        9.09104014       3.97975418       8.52178711      -0.16663243       2.00631929       0.63477414
H        1.71062444       1.10301860      11.53371910      -0.62888150      -0.42471644      -0.19679010
H        9.82796836       1.87300880       8.60450128      -0.31435683      -1.17192930      -0.11655010
H        1.33638763       7.74881789       3.50662775       1.50094200      -0.27037394       0.21462446
H        7.84347226      12.28249661       1.65930250      -0.09271449      -0.25405921      -0.10822290
H        5.08210972       6.77941370       1.48174174       0.03910244       0.26209249       0.41530339
H        1.39165833       1.78816324       5.49379218      -0.19843299      -0.29497837      -0.73272631
H       11.20059946       8.85457777       6.97389501       0.00728191      -0.32955170      -0.22802895
H        1.88462166       0.15186549       1.22421692       0.02444807      -0.11196796      -0.47022255
H        1.62759641       3.79808644      12.23390985      -0.13590150      -1.44272440      -1.68297350
H        8.15913258      10.26734804      11.69826869       0.59220798       0.23114904      -1.01039614
H        2.00838000       8.05807411      11.43723115       0.44515308      -0.27743068       0.18917971
H        1.02576171       1.41222739       7.95770746      -1.14194458       0.84879472       1.23203906
H        6.88441024       2.70316011       5.20037741       0.26791804      -0.85450941      -0.38483746
H        7.89140623      10.50845596       9.37572991      -0.40540290       0.05105949      -0.60091977
H        3.06137322      11.41083925      12.19040353       0.99569908      -0.37204835      -0.52275641
H        4.85556976       1.26745608      10.27571623      -0.25512570      -1.15013653      -0.07103427
H        0.15399104       1.82487817       3.46321839      -0.37099837       0.07477652       0.20195257
H       10.88754857       6.85124815       0.80995017       1.09143459      -1.14817270       0.58938991
H        0.97551753      10.32645473       4.87212586       0.62437196       0.39014674       0.18101611
H       10.61423865       4.74347486       6.08121845       0.76413548      -0.71069618      -0.50967992
H       10.97438221       0.05585844      10.76799418      -0.08027499       0.20948074      -0.14974252
H       11.08326898       2.17564797       4.85875939       0.05902031      -0.40931015      -1.47163395
H        2.27161736       4.80915753       5.00872779      -0.65321260       0.14657790       0.67866788
H        0.76847390       9.32934850       0.49561647       0.39346737       0.00684493      -0.69778435
H        1.44289626       9.26434544       9.48823348       0.13239291      -0.18393618      -0.45502892
H        8.56220544       7.59335548       3.36305118       0.60349354       0.32876064      -0.28819720
H        7.43269234       3.65181986      12.09808974      -0.17289096      -1.01723756      -0.32470243
H        7.17011868       5.74357129       2.64572332       0.88844326       0.40199420       1.00137969
H        3.56671555       6.68901703       0.12319859       0.18193811       0.76497289       0.15110943
H        4.01589591       8.99393659       4.90720381       0.30290634       0.25669235       0.55335617
H        6.50806440       1.85276962      11.02298583       1.20923069      -0.00853133      -0.33405232
H        9.02813211       5.49015087       9.25368571      -0.06000558      -0.54021129       0.04996692
H        0.65686207      12.28863473      11.42823817      -0.35858298       0.17939370      -0.44019941
H       10.89150820       2.75418457       9.32788115       0.13578490       0.00348235       0.36767765
H        0.20186270       8.25164099       2.58685194       0.26568517      -1.05001987       1.01608847
H        8.96397792      11.22615670       1.59082733      -0.82841946       0.17977936      -0.17970073
H        5.15765546       8.26076937       1.23694525       0.46685488       0.77606235      -0.17715732
H        2.57687272       2.09293313       6.35148650       3.45831207       1.55046258       0.13501767
H       10.84131177      10.35311241       7.16632437       0.36145290      -0.06836248       0.10965505
H        3.00726981      11.88159927       2.10057189      -0.28168700       0.17867653      -0.01523119
H        1.95998677       4.20011854       1.20684911       0.66282092      -0.31436145       0.71604045
H        9.40268316       9.95812840      10.76326885       0.94903426      -0.58664689       0.06712240
H        2.55550116       9.56210214      11.48790016      -1.06527633      -1.17892981       0.16046656
H        0.28863509       0.73246132       9.14556890      -0.44725969      -0.87626055       0.57140233
H        6.56908659       1.18460272       4.85492423       0.95811180       0.38939908       0.35198851
H        6.41404753      10.73424903       9.08306649       0.39353181       0.32657901      -0.75039862
H        4.42201694      11.60320158      10.61016325       0.44020718       0.38123833      -1.13362514
H        7.04424331       3.60896583       8.64975396      -0.04993251      -0.62861808      -0.42888731
H       11.32284351      11.05560214       1.73620105      -0.43266035       1.00899032      -0.08276204
H        7.40893711       8.36976907       1.50055104      -0.17754402       1.15938154      -0.48518638
H        1.44567257       2.43575728       9.98729302       0.15001267       0.16803964       0.55411106
H        5.57987502       6.18232561       7.32875118      -2.33281857      -0.02440142       1.01294479
H        9.25661251      10.80031402       5.03479973      -0.34829347      -0.28383621       0.18776586
H        6.22927714       4.34250219       4.05983207      -0.11210705       0.00129003      -0.33998775
H        8.86167768       5.51444555       4.52207533       0.08717488       0.39485425      -1.12769693
H        0.49761400       5.87336879       5.97769931      -0.73405013       0.82379779      -0.09738637
H        8.92712912       0.92447204      12.15987347       0.50210923       0.31852284      -0.67457109
H        8.10159433       1.08954973       6.48966729      -0.32650243      -0.48291073      -0.53185061
H        9.81984828      12.08519650       6.76922550      -0.97457553       0.96113883       0.42426648
H        6.14493316       8.11790039      11.16749815      -0.70576637       0.48826836       0.88932538
H       12.02640603       7.74291205       4.80056793      -0.71118713      -1.11133279       1.90035273
H        0.06190698       4.86365299       1.23600501      -0.03106872       0.58321581      -0.38408365
H        6.43383718       8.04640366       6.76164029       0.27242579      -1.13920068      -0.14574963
H       10.83586726       8.95867604       9.59683008      -0.00292020      -0.20228416       0.18173875
H        2.49268758      10.74686277       8.00422206       0.64421663       0.64135380      -0.83878188
H        6.90558745      11.01189500       4.28173559       0.17080260       0.11883754       0.16613363
H        5.05792873      11.00915816       2.93122411      -0.16074761      -0.19953769      -0.31727129
H        9.41289404       6.50901191      11.59776509       0.92311742       0.77891163       1.00709927
H        7.74757663       1.77390358       3.20580855      -0.67805708      -0.05269812      -0.21106103
H        3.12066055       6.61374561       4.19267020       0.23614355      -0.03200380      -0.62262169
H        3.38592641       6.47189669       8.68232246       0.18503886       0.28719460      -0.70987772
H        9.16348021       4.09988801       1.14849946       0.40041409       0.14696650       0.39183018
H       11.09855426       3.08489047       7.14175419       0.67953926      -0.40640483      -1.27612839
H        2.13891256       3.05961159       2.92796266      -0.40220245      -0.50241026       0.46260288
H       10.75505922       2.82197272      11.92458043      -0.05007429      -0.06366987       0.01077605
H        5.65048403       1.63117307       1.36275730      -0.80585032       0.17359190       0.01160015
H        4.64890751       4.18004404      10.23362239       0.39073728      -1.34894880       0.44939528
H        4.82752648       3.20765720       7.86641784       0.89990805      -0.39554359       0.24831118
H       10.87750314       6.89510041       5.52265320      -0.67471719      -0.40388381       0.00444518
H       12.08644738       5.92289464       2.33063262       0.10257838       0.10799958      -0.08705399
H        9.19390420       4.99373200       3.09612187      -0.16197893       0.09372227      -0.35681377
H        1.77010709       5.92974432       6.81612410       0.47387512       0.37763139       0.34703548
H       10.17587632       0.50864317       0.47380745       0.39601563       0.24086371      -0.43494314
H        7.81973299      12.20882641       7.44389869       0.44257022       0.97204884      -0.05116318
H       11.08673182      12.38479759       5.94360758       0.31054246       0.23416360      -0.09126144
H        5.96411766       6.91265339      10.10060652       0.64105413       1.13474029       1.03411056
H        8.28372449       2.49174091       1.98368549      -1.47269268      -1.12064776       0.10411835
H        3.51708009       7.48883799       2.84109144       0.21494543      -0.34538984       0.21392384
H        6.82578584       9.41952512       7.17707749       0.38237094       0.61441105       0.35077965
H       10.70303571       8.57040897      11.20686035       0.50483492      -0.01408012      -0.78983313
H        2.66265619      12.15410630       7.25203111       0.24114207      -0.91344522       0.07602198
H        5.42155271      10.86614055       4.76412361       0.41860305       0.51358899       0.13971268
H        3.93203745      10.00396882       3.00891482      -1.00114794      -1.03708060       1.04099616
H        8.10648049       6.89613930      10.80507300       0.44863893      -0.38553288       0.06143719
H        4.02303335       5.49376790      10.71625325      -0.63267894       0.38310409       0.75245116
H        3.62784043       4.11295194       7.99850793       0.01608980      -0.09864720      -0.11146436
H        3.40073930       7.65571834       7.67668033      -0.58923976       1.81725924       0.09140623
H       10.57387283       4.47174755       1.82324731       0.16327016       0.11414811      -0.26758881
H       12.42313661       3.30973788       6.26262576       0.27148475      -0.01390501       0.28370956
H        3.26948575       4.12107547       2.91619054      -0.16680412      -0.09943781       0.30240275
H       11.39310250       4.25650065      11.74334171      -0.10973614      -0.47485406      -0.12674139
H        4.25918153       2.37699629       1.60870951       0.26380222      -0.79317859      -0.31167188
H        8.24463359       9.62922386       5.38022469      -0.22589542      -0.37650517       0.67373480
H        6.01059525       4.75673121       5.48177369       0.40851102       1.80937217       1.71952575
H        3.94533186      12.02162418       9.12588967       0.55714702      -0.52972050      -0.07020761
H        7.14100155       2.31458447       7.72256668       0.05788043       0.19471574       0.21469565
H       10.85525831      12.23497841       2.65184294       0.51738253       1.08239424       2.25560052
H        6.90553123       9.82482335       1.11466214       0.43532173       0.48683995       0.58072246
H        2.89157597       2.56522555      10.61675535       0.48916038       0.02856094      -0.17834381
H        6.99313904       5.74535928       7.50793395       1.17001717      -0.58317520       0.89018442
O        3.92196511      10.90395990      12.00438949      -1.53161610       0.65187252       0.52720925
O        4.80541492       2.06553771      10.82924974      -0.06120806       1.53139946       0.64503286
O        1.09696754       1.94088472       3.71810402       0.04503258       1.79467260       0.81096266
O       10.40060448       7.47399481       0.28622180      -0.73071714       1.02409445      -0.91839030
O        1.66147649      11.02017005       4.98910986      -2.32620627       0.53571366      -0.81936243
O        9.83216307       5.28115830       5.91669492      -1.51434977       0.28566165       1.64218268
O       11.55242118      11.90820255      10.21970715       0.67162219       3.19780508      -0.31112475
O       11.05812875       1.76211786       3.90259263      -1.39461561       0.67260240       1.04264601
O        3.10538218       5.04277348       4.57817068       1.61262673      -0.35465185      -0.05587582
O        0.36887622       9.78161559       1.25873890      -0.60546109      -0.00146122       1.37782593
O        1.51076411       9.21322633       8.49810601       1.09419295       0.01874695       1.12753911
O        8.82814805       8.35897289       2.80018038      -0.03595868      -1.01131667      -0.86023149
O        7.69512489       4.50644504       0.01720829      -0.32229783      -0.61897668       1.53478811
O        6.39868257       5.58704153       2.09898064      -0.81317463      -0.28221552      -1.06021876
O        2.95551975       6.44747054      11.83345394      -0.12226787      -0.71743050      -0.12642481
O        4.24876611       9.76599722       5.49216292       0.24652391      -1.13248399      -0.03835421
O        7.51521202       1.76995985      11.14730731      -0.77973689       0.41781151       0.22199748
O        8.66701520       4.93315286       8.51650310       0.13053768      -1.47805401      -0.71507724
O        1.48801406       0.17247091      11.81486668       1.12059789       0.12367007       0.66666723
O       10.24678936       2.72805055       8.59883282      -0.09504927       1.02196254      -0.27775574
O        0.41643375       7.54390177       3.30172078      -1.90683921       1.41586061      -1.60673815
O        7.99839560      11.35488858       1.37174174       0.56349107       0.45683793       0.35996503
O        4.49306937       7.57194821       1.36776710      -0.13406716      -1.23219147       0.05023475
O        1.73312080       1.75363236       6.40151624      -2.89579926      -1.34789223       0.70573094
O       11.10214229       9.53895353       7.65849933       0.02203913      -0.32624902       0.38565348
O        2.07215504      12.18259017       2.09074623       0.02051949      -0.14963515       0.63689262
O        1.49069551       4.51487517       0.40725724      -0.62589563       1.33153358       0.80622521
O        8.61901001      10.50463049      10.84405926      -1.60998796       0.60189595       1.09449846
O        1.71704704       8.98929341      11.44626981       0.88689819       1.23701668      -0.29551399
O        0.45049272       1.60896025       8.79837691       1.55904635       0.15706273      -1.78424558
O        7.34069670       1.79790565       5.05736498      -1.20134543       0.09205398       0.11457499
O        7.26442550      10.61404986       8.57847780      -0.43052127      -0.06741281       0.79641614
O        8.50805432      10.25070970       4.69666844       0.83065365       0.75807378      -0.69396853
O        5.89653514       4.02220520       4.91575771      -0.15737074      -1.49681831      -1.45068802
O        4.74512831      11.97251744       9.71355291      -0.38923172       0.08590304       0.93292497
O        6.62944526       2.73751887       8.43412314      -0.03996975       0.52650110       0.31029704
O       10.70350360      11.84628396       1.82304202       0.29609045      -2.21401526      -2.06955000
O        6.95552868       8.91791871       0.79448897      -0.33023727      -1.55112402      -0.27915763
O        1.95446681       2.71138975      10.81726712      -0.44990349      -0.24912761      -0.40728997
O        6.40300207       6.15287127       6.88942579       0.91143331       0.38728261      -1.76015446
O       11.67854245       7.38108052       5.73972873       1.36928214       1.44994165      -1.79527692
O       11.73693598       5.44847832       1.54401676       0.51080315      -0.13575967       0.54079096
O        8.74470358       5.75369834       3.54208047      -0.28222598      -0.38434305       1.62580505
O        1.20443179       5.32402698       6.32774799      -0.15164640      -1.15446673       0.10341916
O        9.91106261       1.03663400      12.10720081      -0.47709636      -0.49077076       0.92822074
O        8.44372446       0.54559253       7.23350817      -0.26221349      -0.63305787       1.00476061
O       10.49807854      11.67662396       6.21806873       0.67615428      -0.86391393      -0.84451110
O        6.59330852       7.56714434      10.54032167      -0.12449213      -1.67254366      -1.92480666
O        7.50902122       1.88299940       2.24692587       2.06145028       0.94679523       0.00655620
O        3.07511993       7.49174624       3.72279825      -0.21519038       1.18089398       0.43353264
O        6.64992498       8.89698122       6.36752846      -0.10780857       0.58664310       0.24360736
O       10.96937729       9.24126870      10.52516857      -0.14987103      -0.23111544       0.51900263
O        3.17480348      11.36780292       7.57616897      -1.29945613       0.46946647       0.71884163
O        6.07462545      11.52326997       4.37493234      -0.74602768      -0.17080137      -0.18802785
O        4.40416988      10.49821576       2.36827508       1.39191769       1.47305035      -0.86637889
O        8.86829350       6.23615222      10.86625807      -1.29777334      -0.08541787      -1.45313989
O        4.34808556       5.02670076       9.93525716       0.33975720       0.94601111      -1.18902242
O        4.06327329       3.50871140       7.37067056      -1.01292356       0.40975756      -0.37752514
O        3.55392825       6.73204679       7.74421605       0.28513366      -1.97724079       0.50365380
O        9.75733183       3.91554011       1.92860443      -0.95079513      -0.81402206      -0.24585409
O       11.46787599       3.16355330       6.18078053      -0.66707405      -0.02179130       1.24718526
O        2.83137909       3.44473491       2.35838414       0.87305153       0.56460882      -0.57734273
O       11.35202116       3.35779338      11.36493717       0.06671325       0.39364140      -0.15035096
O        4.68711393       1.61884216       1.11430791       0.49569459       0.56774973       0.34683270
